Runtime information:
* Directory : /n/holylabs/LABS/kaxiras_lab/axzhu/projects/AM207-final-project/N_9/DFT-structures
>> Start of run:   1-DEC-2024   6:30:01

reinit: Reading from standard input
reinit: Dumping input in INPUT_TMP.18676
************************** Dump of input data file ****************************
#	Basic Information	#
SystemName      Graphene
SystemLabel     Graphene
#	Structural Information		#
%include structure.fdf
#       DFT Parameters          #
SolutionMethod diagon           # Method of solving system. Can change to OrderN, transiesta, etc.
#Diag.Algorithm MRRR
#NumberOfEigenStates -20 # this will include first 10 conduction bands
XC.Functional   GGA
XC.Authors      PBE
DFTD3 true
Spin non-polarized
Mesh.Cutoff 300 Ry              # Cut off plane waves with kinetic energy higher than this.
MaxSCFIterations 300            # Max number of iterations in the SCF loop.
DM.UseSaveDM true
MinSCFIterations       3
SCF.DM.Tolerance       0.0001
SCF.Mixer.Weight       0.10
SCF.Mixer.History      12
SCF.Mix.First          true
#             Basis             #
#PAO.BasisSize   DZP
PAO.Basis < basis.fdf
#	k-points, Bands, DOS		#
%block kgrid_Monkhorst_Pack
   1  0  0  0.0
   0  1  0  0.0
   0  0  1  0.0
%endblock kgrid_Monkhorst_Pack
#BandLinesScale ReciprocalLatticeVectors
#%block BandLines
#1   0.6666666667  0.3333333333  0.0000000000  K
#10  0.0000000000  0.0000000000  0.0000000000  Gamma
#10  0.5000000000  0.0000000000  0.0000000000  M
#10  0.6666666667  0.3333333333  0.0000000000  K
#%endblock BandLines
# Local density of states (LDOS)
# %block LocalDensityOfStates
# EF 8.40 8.50 eV
# %endblock LocalDensityOfStates
#             Wavefunctions             #
#WaveFuncKPointsScale ReciprocalLatticeVectors
#%block WaveFuncKPoints
#0.666 0.333 0.000 from 4375 to 4378 # K wavefuncs 4375 to 4378
#0.000 0.000 0.000 from 4375 to 4378 # Gamma wavefuncs 4375 to 4378
#0.500 0.000 0.000 from 4375 to 4378 # M wavefuncs 4375 to 4378
#%endblock WaveFuncKPoints
#WriteDenchar T
#       Geometry Optimisation           #
MD.UseSaveXV true
MD.TypeOfRun           CG                  # Conjugate Gradient
MD.NumCGsteps          200                 # Max number of steps
MD.MaxForceTol         0.01    eV/Ang      # 10 meV/Ang
MD.VariableCell        false               # Don't relax cell
MD.MaxCGDispl          0.5 Bohr            # Maximum displacement of any atom
# Fix COM in Z direction only
%block Geometry.Constraints
 center all 0.0 0.0 1.0
%endblock Geometry.Constraints
************************** End of input data file *****************************

reinit: -----------------------------------------------------------------------
reinit: System Name: Graphene
reinit: -----------------------------------------------------------------------
reinit: System Label: Graphene
reinit: -----------------------------------------------------------------------

initatom: Reading input for the pseudopotentials and atomic orbitals ----------
Species number:   1 Atomic number:    6 Label: C

---- Processing specs for species: C
Ground state valence configuration:   2s02  2p02
Reading pseudopotential information in PSML from:
  C.psml
PSML file version: 1.1
GGA--PBE XC_GGA_X_PBE--XC_GGA_C_PBE pb
 Using ATOM defaults for log grid...
PSML uuid: 297821e0-be41-11e7-6802-e1ff7dfff095

---- Pseudopotential check for C

Pseudized shells:
2s( 2.00) rc: 1.20
2p( 2.00) rc: 1.26
Valence configuration for ps generation: 2s:2p: Total charge:   4.000000
For C, standard SIESTA heuristics set lmxkb to 3
 (one more than the basis l, including polarization orbitals).
Use PS.lmax or PS.KBprojectors blocks to override.
C pseudopotential only contains V_ls up to l=1 -- lmxkb reset.

<basis_specs>
C                    Z=   6    Mass=  12.011        Charge= 0.99941
Lmxo=2 Lmxkb= 1    BasisType=split      Semic=F
L=0  Nsemic=0  Cnfigmx=2
          i=1  nzeta=1  polorb=0  (2s)
            splnorm:   0.15000
               vcte:    132.57
               rinn:    4.5256
               qcoe:    0.0000
               qyuk:    0.0000
               qwid:   0.10000E-01
                rcs:    6.0009
            lambdas:    1.0000
L=1  Nsemic=0  Cnfigmx=2
          i=1  nzeta=1  polorb=0  (2p)
            splnorm:   0.15000
               vcte:    6.0639
               rinn:    6.0646
               qcoe:    0.0000
               qyuk:    0.0000
               qwid:   0.10000E-01
                rcs:    6.7108
            lambdas:    1.0000
L=2  Nsemic=0  Cnfigmx=3
          i=1  nzeta=1  polorb=0  (3d)
            splnorm:   0.15000
               vcte:    14.478
               rinn:    4.3208
               qcoe:    0.0000
               qyuk:    0.0000
               qwid:   0.10000E-01
                rcs:    6.2254
            lambdas:    1.0000
L=0  Nkbl=1  erefs: 0.17977+309
L=1  Nkbl=1  erefs: 0.17977+309
</basis_specs>

atom: Called for C                     (Z =   6)
NOTE: C pseudopotential has channels up to l= 1
NOTE: PAOs with higher l will be generated with V_local

read_vps: Pseudopotential generation method:
read_vps: ONCVPSP-3.Hamann's oncvpsp
Valence charge in pseudo generation:    4.00000

read_vps: Pseudopotential includes a core correction:
read_vps: Pseudo-core for xc-correction

xc_check: Exchange-correlation functional:
xc_check: GGA Perdew, Burke & Ernzerhof 1996
Got Vlocal (oncv-fit) from psml data
Choosing vlocal chloc cutoff:  4.139772
qtot up to nchloc:    3.99998844
atom: Maximum radius for chlocal:    4.13977
atom: Maximum radius for r*vlocal+2*Zval:    4.13977
Reading KB projs from C psml data
Using scalar-relativistic projectors in PSML file

PSML: Kleinman-Bylander projectors:
   l= 0   rc=  1.231096   Ekb= 12.963096
   l= 0   rc=  1.231096   Ekb=  0.771007
   l= 1   rc=  1.294237   Ekb= -8.399923
   l= 1   rc=  1.294237   Ekb= -1.755033

PSML: Total number of  Kleinman-Bylander projectors:   8
atom: -------------------------------------------------------------------------

atom: SANKEY-TYPE ORBITALS:

atom: basis set generated (by rescaling the valence charge)
atom: for a cation of charge   0.9994

SPLIT: Orbitals with angular momentum L= 0

SPLIT: Basis orbitals for state 2s

   izeta = 1
                 lambda =    1.000000
                     rc =    6.099293
                 energy =   -2.079355
                kinetic =    1.090115
    potential(screened) =   -3.169470
       potential(ionic) =   -5.727963

[...]

SPLIT: Basis orbitals for state 2p

   izeta = 1
                 lambda =    1.000000
                     rc =    6.740804
                 energy =   -1.441657
                kinetic =    3.222058
    potential(screened) =   -4.663715
       potential(ionic) =   -7.206130
*Note: V_local used for l= 2

** Using vlocal for PAOs with L= 2

SPLIT: Orbitals with angular momentum L= 2

SPLIT: Basis orbitals for state 3d

   izeta = 1
                 lambda =    1.000000
                     rc =    6.253707
                 energy =    0.017329
                kinetic =    1.197074
    potential(screened) =   -1.179745
       potential(ionic) =   -2.838380
atom: Total number of Sankey-type orbitals:  9

atm_pop: Valence configuration (for local Pseudopot. screening):
 2s( 2.00)
 2p( 2.00)
 3d( 0.00)
Vna: chval, zval:    4.00000   4.00000

Vna:  Cut-off radius for the neutral-atom potential:   6.740804
comcore: Pseudo-core radius Rcore=  1.682861

atom: _________________________________________________________________________

prinput: Basis input

PAO.BasisType split

%block ChemicalSpeciesLabel
    1    6 C                       # Species index, atomic number, species label
%endblock ChemicalSpeciesLabel

%block PAO.Basis                 # Define Basis set
# WARNING: This information might be incomplete!
C                     3   0.999            # Label, l-shells, ionic net charge
 n=2   0   1                         # n, l, Nzeta
   6.099
   1.000
 n=2   1   1                         # n, l, Nzeta
   6.741
   1.000
 n=3   2   1                         # n, l, Nzeta
   6.254
   1.000
%endblock PAO.Basis

prinput: ----------------------------------------------------------------------

Dumping basis to NetCDF file C.ion.nc
coor:   Atomic-coordinates input format  =     Cartesian coordinates
coor:                                          (in Angstroms)

ioxv: Reading coordinates and velocities from file
! Info in XV file prevails over previous structure input

siesta: Atomic coordinates (Bohr) and species
siesta:      2.68394   0.00000  34.62923  1        1
siesta:     10.73577   0.00000  34.62923  1        2
siesta:     18.78760   0.00000  34.62923  1        3
siesta:     26.83943   0.00000  34.62923  1        4
siesta:     34.89126   0.00000  34.62923  1        5
siesta:     42.94309   0.00000  34.62923  1        6
siesta:     50.99492   0.00000  34.62923  1        7
siesta:     59.04675   0.00000  34.62923  1        8
siesta:     67.09858   0.00000  34.62923  1        9
siesta:      6.70986   2.32436  34.62923  1       10
siesta:     14.76169   2.32436  34.62923  1       11
siesta:     22.81352   2.32436  34.62923  1       12
siesta:     30.86535   2.32436  34.62923  1       13
siesta:     38.91718   2.32436  34.62923  1       14
siesta:     46.96901   2.32436  34.62923  1       15
siesta:     55.02084   2.32436  34.62923  1       16
siesta:     63.07267   2.32436  34.62923  1       17
siesta:     71.12450   2.32436  34.62923  1       18
siesta:     10.73577   4.64873  34.62923  1       19
siesta:     18.78760   4.64873  34.62923  1       20
siesta:     26.83943   4.64873  34.62923  1       21
siesta:     34.89126   4.64873  34.62923  1       22
siesta:     42.94309   4.64873  34.62923  1       23
siesta:     50.99492   4.64873  34.62923  1       24
siesta:     59.04675   4.64873  34.62923  1       25
siesta:     67.09858   4.64873  34.62923  1       26
siesta:      6.70986   6.97309  34.62923  1       27
siesta:     14.76169   6.97309  34.62923  1       28
siesta:     22.81352   6.97309  34.62923  1       29
siesta:     30.86535   6.97309  34.62923  1       30
siesta:     38.91718   6.97309  34.62923  1       31
siesta:     46.96901   6.97309  34.62923  1       32
siesta:     55.02084   6.97309  34.62923  1       33
siesta:     63.07267   6.97309  34.62923  1       34
siesta:     71.12450   6.97309  34.62923  1       35
siesta:     10.73577   9.29745  34.62923  1       36
siesta:     18.78760   9.29745  34.62923  1       37
siesta:     26.83943   9.29745  34.62923  1       38
siesta:     34.89126   9.29745  34.62923  1       39
siesta:     42.94309   9.29745  34.62923  1       40
siesta:     50.99492   9.29745  34.62923  1       41
siesta:     59.04675   9.29745  34.62923  1       42
siesta:     67.09858   9.29745  34.62923  1       43
siesta:     75.15041   9.29745  34.62923  1       44
siesta:     14.76169  11.62182  34.62923  1       45
siesta:     22.81352  11.62182  34.62923  1       46
siesta:     30.86535  11.62182  34.62923  1       47
siesta:     38.91718  11.62182  34.62923  1       48
siesta:     46.96901  11.62182  34.62923  1       49
siesta:     55.02084  11.62182  34.62923  1       50
siesta:     63.07267  11.62182  34.62923  1       51
[...]

%block SCF.Mixers
  Pulay
%endblock SCF.Mixers

%block SCF.Mixer.Pulay
  # Mixing method
  method pulay
  variant stable

  # Mixing options
  weight 0.1000
  weight.linear 0.1000
  history 12
%endblock SCF.Mixer.Pulay

DFT-D3: loading default parameters for functional PBE.
DM_history_depth set to one: no extrapolation allowed by default for geometry relaxation
Size of DM history Fstack: 1
Total number of electrons:  3472.000000
Total ionic charge:  3472.000000

* ProcessorY, Blocksize:    8  64

* Orbital distribution balance (max,min):   128    64

 Kpoints in:            1 . Kpoints trimmed:            1

siesta: k-grid: Number of k-points = 1
siesta: k-points from Monkhorst-Pack grid
siesta: k-cutoff (effective) =    18.119 Ang
siesta: k-point supercell and displacements
siesta: k-grid:     1     0     0      0.000
siesta: k-grid:     0     1     0      0.000
siesta: k-grid:     0     0     1      0.000

diag: Algorithm                                     = D&C
diag: Parallel over k                               =   F
diag: Use parallel 2D distribution                  =   T
diag: Parallel block-size                           = 64
diag: Parallel distribution                         =     8 x     8
diag: Used triangular part                          = Lower
diag: Absolute tolerance                            =  0.100E-15
diag: Orthogonalization factor                      =  0.100E-05

siesta: Constraint v=[  0.00000,  0.00000,  1.00000] (868): center-dir
  [ 1 -- 868 ]

ts: **************************************************************
ts: Save H and S matrices                           =    F
ts: Save DM and EDM matrices                        =    F
ts: Only save the overlap matrix S                  =    F
ts: **************************************************************

************************ Begin: TS CHECKS AND WARNINGS ************************
************************ End: TS CHECKS AND WARNINGS **************************

                        Begin CG opt. move =      0

outcell: Unit cell vectors (Ang):
       36.217182   -1.230000    0.000000
       19.173802   30.750000    0.000000
        0.000000    0.000000   40.000000

outcell: Cell vector modules (Ang)   :   36.238063   36.238063   40.000000
outcell: Cell angles (23,13,12) (deg):     90.0000     90.0000     60.0000
outcell: Cell volume (Ang**3)        :  45490.4854
<dSpData1D:S at geom step 0
  <sparsity:sparsity for geom step 0
    nrows_g=7812 nrows=128 sparsity=.0020 nnzs=124078, refcount: 7>
  <dData1D:(new from dSpData1D) n=124078, refcount: 1>
refcount: 1>
new_DM -- step:     1
Initializing Density Matrix...

Attempting to read DM from file... Succeeded...
DM from file:
<dSpData2D:IO-DM: Graphene.DM
  <sparsity:IO-DM: Graphene.DM
    nrows_g=7812 nrows=128 sparsity=.0020 nnzs=124078, refcount: 1>
  <dData2D:(new from dSpData2D) n=124078 m=1, refcount: 1>
refcount: 1>
DM to be used:
<dSpData2D:Re-structured SpM
  <sparsity:sparsity for geom step 0
    nrows_g=7812 nrows=128 sparsity=.0020 nnzs=124078, refcount: 8>
  <dData2D:(new in restruct) n=124078 m=1, refcount: 1>
refcount: 1>
No. of atoms with KB's overlaping orbs in proc 0. Max # of overlaps:     245     238

InitMesh: MESH = 360 x 360 x 432 = 55987200
InitMesh: Mesh cutoff (required, used) =   300.000   322.366 Ry
New grid distribution [1]: sub = 2
New grid distribution [2]: sub = 2
New grid distribution [3]: sub = 2
Setting up quadratic distribution...

stepf: Fermi-Dirac step function

siesta: Program's energy decomposition (eV):
siesta: Ebs     =    -42891.501630
siesta: Eions   =    244916.362311
siesta: Ena     =     54080.791048
siesta: Ekin    =     99830.209347
siesta: Enl     =     -5273.916997
siesta: Eso     =         0.000000
siesta: Edftu   =         0.000000
siesta: DEna    =      5060.207688
siesta: DUscf   =       238.026887
siesta: DUext   =         0.000000
siesta: Ex      =    -46508.994056
siesta: Ec      =     -4407.608453
siesta: Exc     =    -50916.602509
siesta: EbV     =         0.000000
siesta: eta*DQ  =         0.000000
siesta: Emadel  =         0.000000
siesta: Emeta   =         0.000000
siesta: Emolmec =         0.000000
siesta: Ekinion =         0.000000
siesta: Eharris =   -141909.295350
siesta: Etot    =   -141897.646847
siesta: FreeEng =   -141897.646847

SCF Convergence by DM+H criterion
max |DM_out - DM_in|         :     0.0000310028
max |H_out - H_in|      (eV) :     0.0002230766
SCF cycle converged after 10 iterations

Using DM_out to compute the final energy and forces
No. of atoms with KB's overlaping orbs in proc 0. Max # of overlaps:     245     238
System symmetry is of type slab but no DFTD3.Periodic list was found. Attempting to guess symmetry for D3.
Could not guess the right amount of periodicity directions for D3.
Enabling periodicity on all directions.

siesta: E_KS(eV) =          -142000.1824

siesta: E_KS - E_eggbox =   -142000.1824

siesta: Atomic forces (eV/Ang):
   Tot    0.000000    0.000000   -0.000001
   Max    0.050953
   Res    0.016377    sqrt( Sum f_i^2 / 3N )
   Max    0.050953    constrained

Stress tensor Voigt[x,y,z,yz,xz,xy] (kbar):      -25.77      -25.77       -5.40       -0.00        0.00        0.00
(Free)E + p*V (eV/cell)  -141461.2677
Target enthalpy (eV/cell)  -142000.1824

[...]

outcell: Cell vector modules (Ang)   :   36.238063   36.238063   40.000000
outcell: Cell angles (23,13,12) (deg):     90.0000     90.0000     60.0000
outcell: Cell volume (Ang**3)        :  45490.4854
<dSpData1D:S at geom step 1
  <sparsity:sparsity for geom step 1
    nrows_g=7812 nrows=128 sparsity=.0020 nnzs=123659, refcount: 7>
  <dData1D:(new from dSpData1D) n=123659, refcount: 1>
refcount: 1>
new_DM -- step:     2
Re-using DM from previous geometries...
Number of DMs in history: 1
 DM extrapolation coefficients:
1   1.00000
New DM after history re-use:
<dSpData2D:SpM extrapolated using coords
  <sparsity:sparsity for geom step 1
    nrows_g=7812 nrows=128 sparsity=.0020 nnzs=123659, refcount: 9>
  <dData2D:(temp array for extrapolation) n=123659 m=1, refcount: 1>
refcount: 1>
No. of atoms with KB's overlaping orbs in proc 0. Max # of overlaps:     243     234

[...]

        iscf     Eharris(eV)        E_KS(eV)     FreeEng(eV)     dDmax    Ef(eV) dHmax(eV)
   scf:    1  -142001.617445  -142000.566505  -142000.566505  0.002973 -3.952555  0.087742
   scf:    2  -142000.241131  -142000.464062  -142000.464062  0.001808 -3.951196  0.623296
   scf:    3  -142000.581406  -142000.568998  -142000.568999  0.001573 -3.952263  0.005440
   scf:    4  -142000.569478  -142000.569254  -142000.569254  0.000059 -3.952154  0.003343
   scf:    5  -142000.569442  -142000.569352  -142000.569353  0.000046 -3.952269  0.001696
   scf:    6  -142000.569413  -142000.569386  -142000.569386  0.000042 -3.952505  0.000407

[...]

cgvc: Finished line minimization    1.  Mean atomic displacement =    0.0185

[...]

cgvc: Finished line minimization   18.  Mean atomic displacement =    0.0006

                        Begin CG opt. move =     45

outcell: Unit cell vectors (Ang):
       36.217182   -1.230000    0.000000
       19.173802   30.750000    0.000000
        0.000000    0.000000   40.000000

outcell: Cell vector modules (Ang)   :   36.238063   36.238063   40.000000
outcell: Cell angles (23,13,12) (deg):     90.0000     90.0000     60.0000
outcell: Cell volume (Ang**3)        :  45490.4854
<dSpData1D:S at geom step 45
  <sparsity:sparsity for geom step 45
    nrows_g=7812 nrows=128 sparsity=.0020 nnzs=120899, refcount: 7>
  <dData1D:(new from dSpData1D) n=120899, refcount: 1>
refcount: 1>
new_DM -- step:    46
Re-using DM from previous geometries...
Number of DMs in history: 1
 DM extrapolation coefficients:
1   1.00000
New DM after history re-use:
<dSpData2D:SpM extrapolated using coords
  <sparsity:sparsity for geom step 45
    nrows_g=7812 nrows=128 sparsity=.0020 nnzs=120899, refcount: 9>
  <dData2D:(temp array for extrapolation) n=120899 m=1, refcount: 1>
refcount: 1>
No. of atoms with KB's overlaping orbs in proc 0. Max # of overlaps:     234     229

InitMesh: MESH = 360 x 360 x 432 = 55987200
InitMesh: Mesh cutoff (required, used) =   300.000   322.366 Ry
New grid distribution [1]: sub = 2
New grid distribution [2]: sub = 2
New grid distribution [3]: sub = 2
Setting up quadratic distribution...

        iscf     Eharris(eV)        E_KS(eV)     FreeEng(eV)     dDmax    Ef(eV) dHmax(eV)
   scf:    1  -142001.027025  -142001.034219  -142001.034219  0.000581 -3.957363  0.016045
   scf:    2  -142001.020880  -142001.030100  -142001.030100  0.000650 -3.956570  0.102730
   scf:    3  -142001.034924  -142001.034387  -142001.034387  0.000547 -3.957250  0.001530
   scf:    4  -142001.034402  -142001.034397  -142001.034397  0.000028 -3.957278  0.000483

SCF Convergence by DM+H criterion
max |DM_out - DM_in|         :     0.0000276975
max |H_out - H_in|      (eV) :     0.0004830626
SCF cycle converged after 4 iterations

Using DM_out to compute the final energy and forces
No. of atoms with KB's overlaping orbs in proc 0. Max # of overlaps:     234     229
System symmetry is of type slab but no DFTD3.Periodic list was found. Attempting to guess symmetry for D3.
Could not guess the right amount of periodicity directions for D3.
Enabling periodicity on all directions.

siesta: E_KS(eV) =          -142001.0378

siesta: Atomic forces (eV/Ang):
   Tot   -0.000002    0.000000   -0.000000
   Max    0.009322
   Res    0.003030    sqrt( Sum f_i^2 / 3N )
   Max    0.009322    constrained

Stress tensor Voigt[x,y,z,yz,xz,xy] (kbar):      -26.06      -26.07       -4.01       -0.00        0.00        0.01
(Free)E + p*V (eV/cell)  -141469.7175
Target enthalpy (eV/cell)  -142001.0378

outcoor: Relaxed atomic coordinates (Ang):
    1.42033111    0.00218084   18.13696674   1       1  C
    5.68134012    0.00670230   18.16586164   1       2  C
    9.94193182    0.00762800   18.21333490   1       3  C
   14.20264467    0.00470983   18.25293793   1       4  C
   18.46346231   -0.00014696   18.26598049   1       5  C
   22.72396190   -0.00484149   18.24808506   1       6  C
   26.98426292   -0.00734599   18.20635039   1       7  C
   31.24440883   -0.00589343   18.16043231   1       8  C
   35.50512730   -0.00102526   18.13696657   1       9  C
    3.54930172    1.23491506   18.14947290   1      10  C
    7.81046315    1.23754398   18.19015078   1      11  C
   12.07168945    1.23646324   18.23631558   1      12  C
   16.33260068    1.23238041   18.26423322   1      13  C
   20.59313289    1.22746406   18.26234916   1      14  C
   24.85323511    1.22360374   18.23146621   1      15  C
   29.11287352    1.22326201   18.18538855   1      16  C
   33.37306123    1.22634990   18.14947278   1      17  C
   37.63402221    1.23215068   18.14332274   1      18  C
    5.67864783    2.46656981   18.17110279   1      19  C
    9.94021051    2.46735665   18.21700640   1      20  C
   14.20157685    2.46457295   18.25552189   1      21  C
   18.46240179    2.46009244   18.26897542   1      22  C
   22.72257326    2.45547042   18.25291188   1      23  C
   26.98212570    2.45315387   18.21362219   1      24  C
   31.24174424    2.45458895   18.17110246   1      25  C
   35.50202853    2.45922486   18.14919310   1      26  C
    3.54647568    3.69450346   18.16043298   1      27  C
    7.80866620    3.69717852   18.19868969   1      28  C
   12.07034501    3.69597526   18.24214453   1      29  C
   16.33166310    3.69235973   18.26875925   1      30  C
   20.59212676    3.68789500   18.26786193   1      31  C
   24.85181985    3.68422901   18.23987931   1      32  C
   29.11099608    3.68393378   18.19869015   1      33  C
   33.37070492    3.68685675   18.16586173   1      34  C
   37.63150965    3.69194405   18.16058084   1      35  C
    5.67672338    4.92588931   18.18538847   1      36  C
    9.93895165    4.92670753   18.22703704   1      37  C
   14.20078389    4.92409750   18.26209661   1      38  C
   18.46179276    4.92009111   18.27487353   1      39  C
   22.72203391    4.91612167   18.26123607   1      40  C
   26.98104930    4.91405087   18.22703706   1      41  C
   31.24020397    4.91530849   18.19015066   1      42  C
   35.50004786    4.91955725   18.17096719   1      43  C
   39.76174336    4.92371399   18.18082787   1      44  C
    7.80721489    6.15622297   18.21362138   1      45  C
   12.06972536    6.15524270   18.25133667   1      46  C
   16.33137943    6.15202306   18.27527581   1      47  C
   20.59213153    6.14805098   18.27499746   1      48  C
   24.85171882    6.14508840   18.25133668   1      49  C
   29.11027982    6.14481752   18.21700680   1      50  C
   33.36951117    6.14745494   18.19000007   1      51  C
   37.63010307    6.15156608   18.18556753   1      52  C
    5.67529212    7.38462380   18.20635035   1      53  C
    9.93850879    7.38558458   18.23987893   1      54  C
   14.20097812    7.38357586   18.26948754   1      55  C
   18.46232647    7.38007028   18.28098311   1      56  C
   22.72232374    7.37663985   18.26948783   1      57  C
   26.98119703    7.37525894   18.24214489   1      58  C
   31.23960575    7.37617200   18.21333559   1      59  C
   35.49930926    7.37967841   18.19857150   1      60  C
[...]
   28.29926918   28.88911621   21.79366306   1     854  C
   32.55082358   28.60251930   21.75156833   1     855  C
   36.80225782   28.31808276   21.73305183   1     856  C
   41.05316615   28.03384773   21.74509744   1     857  C
   45.30354007   27.74765796   21.78307209   1     858  C
   49.55338619   27.45756831   21.82903256   1     859  C
   53.80364666   27.16415804   21.85667728   1     860  C
   22.00768678   30.55322484   21.85667728   1     861  C
   26.25850565   30.26103230   21.81917209   1     862  C
   30.50932469   29.97251217   21.77160579   1     863  C
   34.76044108   29.68734236   21.73930852   1     864  C
   39.01177783   29.40338977   21.73640703   1     865  C
   43.26270043   29.11840843   21.76400577   1     866  C
   47.51315745   28.83029970   21.80999932   1     867  C
   51.76351970   28.53856198   21.85080689   1     868  C

siesta: Program's energy decomposition (eV):
siesta: Ebs     =    -46066.700191
siesta: Eions   =    244916.362311
siesta: Ena     =     54081.624416
siesta: Ekin    =     98649.945789
siesta: Enl     =     -5004.958156
siesta: Eso     =         0.000000
siesta: Edftu   =         0.000000
siesta: DEna    =      5685.045305
siesta: DUscf   =       289.151869
siesta: DUext   =         0.000000
siesta: Ex      =    -46298.504918
siesta: Ec      =     -4402.339199
siesta: Exc     =    -50700.844117
siesta: EbV     =         0.000000
siesta: eta*DQ  =         0.000000
siesta: Emadel  =         0.000000
siesta: Emeta   =         0.000000
siesta: Emolmec =         0.000000
siesta: Ekinion =         0.000000
siesta: Eharris =   -142001.034402
siesta: Etot    =   -142001.037757
siesta: FreeEng =   -142001.037757

siesta: Final energy (eV):
siesta:  Band Struct. =  -46066.700191
siesta:       Kinetic =   98649.945789
siesta:       Hartree = 2297280.343599
siesta:         Edftu =       0.000000
siesta:       Eso     =       0.000000
siesta:    Ext. field =       0.000000
siesta:         Exch. =  -46298.504918
siesta:         Corr. =   -4402.339199
siesta:     Bulk bias =       0.000000
siesta:   Exch.-corr. =  -50700.844117
siesta:  Ion-electron =-4683846.761198
siesta:       Ion-ion = 2196700.918722
siesta:       Ekinion =       0.000000
siesta: D3 dispersion =     -84.640551
siesta:         Total = -142001.037757
siesta:         Fermi =      -3.957278

siesta: Stress tensor (static) (eV/Ang**3):
siesta:    -0.016266    0.000005    0.000000
siesta:     0.000005   -0.016272   -0.000000
siesta:     0.000000   -0.000000   -0.002501

siesta: Cell volume =      45490.485415 Ang**3

siesta: Pressure (static):
siesta:                Solid            Molecule  Units
siesta:           0.00012721          0.00012753  Ry/Bohr**3
siesta:           0.01167981          0.01170916  eV/Ang**3
siesta:          18.71311936         18.76015041  kBar
(Free)E+ p_basis*V_orbitals  =     -141477.941054
(Free)Eharris+ p_basis*V_orbitals  =     -141477.937699

siesta: Electric dipole (a.u.)  =    0.000000    0.000000    0.000000
siesta: Electric dipole (Debye) =    0.000000    0.000000    0.000000

cite: Please see "Graphene.bib" for an exhaustive BiBTeX file.
cite: Please clearly indicate Siesta version in published work: 5.0.0-alpha-112-g6e4f53aee-dirty
cite: This calculation has made use of the following articles
cite: which are encouraged to be cited in a published work.
        Primary SIESTA paper
          DOI: www.doi.org/10.1088/0953-8984/14/11/302

>> End of run:   1-DEC-2024   8:09:18
Job completed