Runtime information:
* Directory : /n/holylabs/LABS/kaxiras_lab/axzhu/projects/AM207-final-project/N_5/DFT-structures
>> Start of run:  30-NOV-2024  20:26:25

reinit: Reading from standard input
reinit: Dumping input in INPUT_TMP.56483
************************** Dump of input data file ****************************
#	Basic Information	#
SystemName      Graphene
SystemLabel     Graphene
#	Structural Information		#
%include structure.fdf
#       DFT Parameters          #
SolutionMethod diagon           # Method of solving system. Can change to OrderN, transiesta, etc.
#Diag.Algorithm MRRR
#NumberOfEigenStates -20 # this will include first 10 conduction bands
XC.Functional   GGA
XC.Authors      PBE
DFTD3 true
Spin non-polarized
Mesh.Cutoff 300 Ry              # Cut off plane waves with kinetic energy higher than this.
MaxSCFIterations 300            # Max number of iterations in the SCF loop.
DM.UseSaveDM true
MinSCFIterations       3
SCF.DM.Tolerance       0.0001
SCF.Mixer.Weight       0.10
SCF.Mixer.History      12
SCF.Mix.First          true
#             Basis             #
#PAO.BasisSize   DZP
PAO.Basis < basis.fdf
#	k-points, Bands, DOS		#
%block kgrid_Monkhorst_Pack
   1  0  0  0.0
   0  1  0  0.0
   0  0  1  0.0
%endblock kgrid_Monkhorst_Pack
#BandLinesScale ReciprocalLatticeVectors
#%block BandLines
#1   0.6666666667  0.3333333333  0.0000000000  K
#10  0.0000000000  0.0000000000  0.0000000000  Gamma
#10  0.5000000000  0.0000000000  0.0000000000  M
#10  0.6666666667  0.3333333333  0.0000000000  K
#%endblock BandLines
# Local density of states (LDOS)
# %block LocalDensityOfStates
# EF 8.40 8.50 eV
# %endblock LocalDensityOfStates
#             Wavefunctions             #
#WaveFuncKPointsScale ReciprocalLatticeVectors
#%block WaveFuncKPoints
#0.666 0.333 0.000 from 4375 to 4378 # K wavefuncs 4375 to 4378
#0.000 0.000 0.000 from 4375 to 4378 # Gamma wavefuncs 4375 to 4378
#0.500 0.000 0.000 from 4375 to 4378 # M wavefuncs 4375 to 4378
#%endblock WaveFuncKPoints
#WriteDenchar T
#       Geometry Optimisation           #
MD.UseSaveXV true
MD.TypeOfRun           CG                  # Conjugate Gradient
MD.NumCGsteps          200                 # Max number of steps
MD.MaxForceTol         0.01    eV/Ang      # 10 meV/Ang
MD.VariableCell        false               # Don't relax cell
MD.MaxCGDispl          0.5 Bohr            # Maximum displacement of any atom
# Fix COM in Z direction only
%block Geometry.Constraints
 center all 0.0 0.0 1.0
%endblock Geometry.Constraints
************************** End of input data file *****************************

reinit: -----------------------------------------------------------------------
reinit: System Name: Graphene
reinit: -----------------------------------------------------------------------
reinit: System Label: Graphene
reinit: -----------------------------------------------------------------------

initatom: Reading input for the pseudopotentials and atomic orbitals ----------
Species number:   1 Atomic number:    6 Label: C

---- Processing specs for species: C
Ground state valence configuration:   2s02  2p02
Reading pseudopotential information in PSML from:
  C.psml
PSML file version: 1.1
GGA--PBE XC_GGA_X_PBE--XC_GGA_C_PBE pb
 Using ATOM defaults for log grid...
PSML uuid: 297821e0-be41-11e7-6802-e1ff7dfff095

---- Pseudopotential check for C

Pseudized shells:
2s( 2.00) rc: 1.20
2p( 2.00) rc: 1.26
Valence configuration for ps generation: 2s:2p: Total charge:   4.000000
For C, standard SIESTA heuristics set lmxkb to 3
 (one more than the basis l, including polarization orbitals).
Use PS.lmax or PS.KBprojectors blocks to override.
C pseudopotential only contains V_ls up to l=1 -- lmxkb reset.

<basis_specs>
C                    Z=   6    Mass=  12.011        Charge= 0.99941
Lmxo=2 Lmxkb= 1    BasisType=split      Semic=F
L=0  Nsemic=0  Cnfigmx=2
          i=1  nzeta=1  polorb=0  (2s)
            splnorm:   0.15000
               vcte:    132.57
               rinn:    4.5256
               qcoe:    0.0000
               qyuk:    0.0000
               qwid:   0.10000E-01
                rcs:    6.0009
            lambdas:    1.0000
L=1  Nsemic=0  Cnfigmx=2
          i=1  nzeta=1  polorb=0  (2p)
            splnorm:   0.15000
               vcte:    6.0639
               rinn:    6.0646
               qcoe:    0.0000
               qyuk:    0.0000
               qwid:   0.10000E-01
                rcs:    6.7108
            lambdas:    1.0000
L=2  Nsemic=0  Cnfigmx=3
          i=1  nzeta=1  polorb=0  (3d)
            splnorm:   0.15000
               vcte:    14.478
               rinn:    4.3208
               qcoe:    0.0000
               qyuk:    0.0000
               qwid:   0.10000E-01
                rcs:    6.2254
            lambdas:    1.0000
L=0  Nkbl=1  erefs: 0.17977+309
L=1  Nkbl=1  erefs: 0.17977+309
</basis_specs>

atom: Called for C                     (Z =   6)
NOTE: C pseudopotential has channels up to l= 1
NOTE: PAOs with higher l will be generated with V_local

read_vps: Pseudopotential generation method:
read_vps: ONCVPSP-3.Hamann's oncvpsp
Valence charge in pseudo generation:    4.00000

read_vps: Pseudopotential includes a core correction:
read_vps: Pseudo-core for xc-correction

xc_check: Exchange-correlation functional:
xc_check: GGA Perdew, Burke & Ernzerhof 1996
Got Vlocal (oncv-fit) from psml data
Choosing vlocal chloc cutoff:  4.139772
qtot up to nchloc:    3.99998844
atom: Maximum radius for chlocal:    4.13977
atom: Maximum radius for r*vlocal+2*Zval:    4.13977
Reading KB projs from C psml data
Using scalar-relativistic projectors in PSML file

PSML: Kleinman-Bylander projectors:
   l= 0   rc=  1.231096   Ekb= 12.963096
   l= 0   rc=  1.231096   Ekb=  0.771007
   l= 1   rc=  1.294237   Ekb= -8.399923
   l= 1   rc=  1.294237   Ekb= -1.755033

PSML: Total number of  Kleinman-Bylander projectors:   8
atom: -------------------------------------------------------------------------

atom: SANKEY-TYPE ORBITALS:

atom: basis set generated (by rescaling the valence charge)
atom: for a cation of charge   0.9994

SPLIT: Orbitals with angular momentum L= 0

SPLIT: Basis orbitals for state 2s

   izeta = 1
                 lambda =    1.000000
                     rc =    6.099293
                 energy =   -2.079355
                kinetic =    1.090115
    potential(screened) =   -3.169470
       potential(ionic) =   -5.727963

[...]

SPLIT: Basis orbitals for state 2p

   izeta = 1
                 lambda =    1.000000
                     rc =    6.740804
                 energy =   -1.441657
                kinetic =    3.222058
    potential(screened) =   -4.663715
       potential(ionic) =   -7.206130
*Note: V_local used for l= 2

** Using vlocal for PAOs with L= 2

SPLIT: Orbitals with angular momentum L= 2

SPLIT: Basis orbitals for state 3d

   izeta = 1
                 lambda =    1.000000
                     rc =    6.253707
                 energy =    0.017329
                kinetic =    1.197074
    potential(screened) =   -1.179745
       potential(ionic) =   -2.838380
atom: Total number of Sankey-type orbitals:  9

atm_pop: Valence configuration (for local Pseudopot. screening):
 2s( 2.00)
 2p( 2.00)
 3d( 0.00)
Vna: chval, zval:    4.00000   4.00000

Vna:  Cut-off radius for the neutral-atom potential:   6.740804
comcore: Pseudo-core radius Rcore=  1.682861

atom: _________________________________________________________________________

prinput: Basis input

PAO.BasisType split

%block ChemicalSpeciesLabel
    1    6 C                       # Species index, atomic number, species label
%endblock ChemicalSpeciesLabel

%block PAO.Basis                 # Define Basis set
# WARNING: This information might be incomplete!
C                     3   0.999            # Label, l-shells, ionic net charge
 n=2   0   1                         # n, l, Nzeta
   6.099
   1.000
 n=2   1   1                         # n, l, Nzeta
   6.741
   1.000
 n=3   2   1                         # n, l, Nzeta
   6.254
   1.000
%endblock PAO.Basis

prinput: ----------------------------------------------------------------------

Dumping basis to NetCDF file C.ion.nc
coor:   Atomic-coordinates input format  =     Cartesian coordinates
coor:                                          (in Angstroms)

siesta: WARNING: XV file not found

siesta: Atomic coordinates (Bohr) and species
siesta:      2.68394   0.00000  34.62923  1        1
siesta:     10.73577   0.00000  34.62923  1        2
siesta:     18.78760   0.00000  34.62923  1        3
siesta:     26.83943   0.00000  34.62923  1        4
siesta:     34.89126   0.00000  34.62923  1        5
siesta:      6.70986   2.32436  34.62923  1        6
siesta:     14.76169   2.32436  34.62923  1        7
siesta:     22.81352   2.32436  34.62923  1        8
siesta:     30.86535   2.32436  34.62923  1        9
siesta:     38.91718   2.32436  34.62923  1       10
siesta:     10.73577   4.64873  34.62923  1       11
siesta:     18.78760   4.64873  34.62923  1       12
siesta:     26.83943   4.64873  34.62923  1       13
siesta:     34.89126   4.64873  34.62923  1       14
siesta:      6.70986   6.97309  34.62923  1       15
siesta:     14.76169   6.97309  34.62923  1       16
siesta:     22.81352   6.97309  34.62923  1       17
siesta:     30.86535   6.97309  34.62923  1       18
siesta:     38.91718   6.97309  34.62923  1       19
siesta:     10.73577   9.29745  34.62923  1       20
siesta:     18.78760   9.29745  34.62923  1       21
siesta:     26.83943   9.29745  34.62923  1       22
siesta:     34.89126   9.29745  34.62923  1       23
siesta:     42.94309   9.29745  34.62923  1       24
siesta:     14.76169  11.62182  34.62923  1       25
siesta:     22.81352  11.62182  34.62923  1       26
siesta:     30.86535  11.62182  34.62923  1       27
siesta:     38.91718  11.62182  34.62923  1       28
siesta:     10.73577  13.94618  34.62923  1       29
siesta:     18.78760  13.94618  34.62923  1       30
siesta:     26.83943  13.94618  34.62923  1       31
siesta:     34.89126  13.94618  34.62923  1       32
siesta:     42.94309  13.94618  34.62923  1       33
siesta:     14.76169  16.27054  34.62923  1       34
siesta:     22.81352  16.27054  34.62923  1       35
siesta:     30.86535  16.27054  34.62923  1       36
siesta:     38.91718  16.27054  34.62923  1       37
siesta:     46.96901  16.27054  34.62923  1       38
siesta:     18.78760  18.59491  34.62923  1       39
siesta:     26.83943  18.59491  34.62923  1       40
siesta:     34.89126  18.59491  34.62923  1       41
siesta:     42.94309  18.59491  34.62923  1       42
siesta:     14.76169  20.91927  34.62923  1       43
siesta:     22.81352  20.91927  34.62923  1       44
siesta:     30.86535  20.91927  34.62923  1       45
siesta:     38.91718  20.91927  34.62923  1       46
siesta:     46.96901  20.91927  34.62923  1       47
siesta:     18.78760  23.24363  34.62923  1       48
siesta:     26.83943  23.24363  34.62923  1       49
siesta:     34.89126  23.24363  34.62923  1       50
siesta:     42.94309  23.24363  34.62923  1       51
siesta:     50.99492  23.24363  34.62923  1       52
siesta:     22.81352  25.56799  34.62923  1       53
[...]

%block SCF.Mixers
  Pulay
%endblock SCF.Mixers

%block SCF.Mixer.Pulay
  # Mixing method
  method pulay
  variant stable

  # Mixing options
  weight 0.1000
  weight.linear 0.1000
  history 12
%endblock SCF.Mixer.Pulay

DFT-D3: loading default parameters for functional PBE.
DM_history_depth set to one: no extrapolation allowed by default for geometry relaxation
Size of DM history Fstack: 1
Total number of electrons:   976.000000
Total ionic charge:   976.000000

* ProcessorY, Blocksize:    8  34

* Orbital distribution balance (max,min):    54    34

 Kpoints in:            1 . Kpoints trimmed:            1

siesta: k-grid: Number of k-points = 1
siesta: k-points from Monkhorst-Pack grid
siesta: k-cutoff (effective) =     9.607 Ang
siesta: k-point supercell and displacements
siesta: k-grid:     1     0     0      0.000
siesta: k-grid:     0     1     0      0.000
siesta: k-grid:     0     0     1      0.000

diag: Algorithm                                     = D&C
diag: Parallel over k                               =   F
diag: Use parallel 2D distribution                  =   T
diag: Parallel block-size                           = 34
diag: Parallel distribution                         =     8 x     8
diag: Used triangular part                          = Lower
diag: Absolute tolerance                            =  0.100E-15
diag: Orthogonalization factor                      =  0.100E-05

siesta: Constraint v=[  0.00000,  0.00000,  1.00000] (244): center-dir
  [ 1 -- 244 ]

ts: **************************************************************
ts: Save H and S matrices                           =    F
ts: Save DM and EDM matrices                        =    F
ts: Only save the overlap matrix S                  =    F
ts: **************************************************************

************************ Begin: TS CHECKS AND WARNINGS ************************
************************ End: TS CHECKS AND WARNINGS **************************

                        Begin CG opt. move =      0

outcell: Unit cell vectors (Ang):
       19.173802   -1.230000    0.000000
       10.652112   15.990000    0.000000
        0.000000    0.000000   40.000000

outcell: Cell vector modules (Ang)   :   19.213214   19.213214   40.000000
outcell: Cell angles (23,13,12) (deg):     90.0000     90.0000     60.0000
outcell: Cell volume (Ang**3)        :  12787.6480
<dSpData1D:S at geom step 0
  <sparsity:sparsity for geom step 0
    nrows_g=2196 nrows=54 sparsity=.0108 nnzs=52214, refcount: 7>
  <dData1D:(new from dSpData1D) n=52214, refcount: 1>
refcount: 1>
new_DM -- step:     1
Initializing Density Matrix...

Attempting to read DM from file... Failed...
DM filled with atomic data:
<dSpData2D:DM initialized from atoms
  <sparsity:sparsity for geom step 0
    nrows_g=2196 nrows=54 sparsity=.0108 nnzs=52214, refcount: 8>
  <dData2D:DM n=52214 m=1, refcount: 1>
refcount: 1>
No. of atoms with KB's overlaping orbs in proc 0. Max # of overlaps:     105     234

InitMesh: MESH = 180 x 180 x 432 = 13996800
InitMesh: Mesh cutoff (required, used) =   300.000   322.366 Ry
New grid distribution [1]: sub = 2
New grid distribution [2]: sub = 2
New grid distribution [3]: sub = 2
Setting up quadratic distribution...

stepf: Fermi-Dirac step function

siesta: Program's energy decomposition (eV):
siesta: Ebs     =    -14291.160560
siesta: Eions   =     68847.456686
siesta: Ena     =     15202.434372
siesta: Ekin    =     26899.403235
siesta: Enl     =     -1212.333374
siesta: Eso     =         0.000000
siesta: Edftu   =         0.000000
siesta: DEna    =      2059.225493
siesta: DUscf   =       131.200757
siesta: DUext   =         0.000000
siesta: Ex      =    -12864.886761
siesta: Ec      =     -1241.344668
siesta: Exc     =    -14106.231429
siesta: EbV     =         0.000000
siesta: eta*DQ  =         0.000000
siesta: Emadel  =         0.000000
siesta: Emeta   =         0.000000
siesta: Emolmec =         0.000000
siesta: Ekinion =         0.000000
siesta: Eharris =    -40839.721366
siesta: Etot    =    -39873.757633
siesta: FreeEng =    -39873.757633

SCF Convergence by DM+H criterion
max |DM_out - DM_in|         :     0.0000179802
max |H_out - H_in|      (eV) :     0.0006149988
SCF cycle converged after 10 iterations

Using DM_out to compute the final energy and forces
No. of atoms with KB's overlaping orbs in proc 0. Max # of overlaps:     105     234
System symmetry is of type slab but no DFTD3.Periodic list was found. Attempting to guess symmetry for D3.
Could not guess the right amount of periodicity directions for D3.
Enabling periodicity on all directions.

siesta: E_KS(eV) =           -39918.2113

siesta: E_KS - E_eggbox =    -39918.2113

siesta: Atomic forces (eV/Ang):
   Tot    0.000000   -0.000000    0.000001
   Max    0.048431
   Res    0.018321    sqrt( Sum f_i^2 / 3N )
   Max    0.048431    constrained

Stress tensor Voigt[x,y,z,yz,xz,xy] (kbar):      -25.38      -25.39       -5.57        0.00        0.00        0.00
(Free)E + p*V (eV/cell)   -39768.3185
Target enthalpy (eV/cell)   -39918.2113

[...]

outcell: Cell vector modules (Ang)   :   19.213214   19.213214   40.000000
outcell: Cell angles (23,13,12) (deg):     90.0000     90.0000     60.0000
outcell: Cell volume (Ang**3)        :  12787.6480
<dSpData1D:S at geom step 1
  <sparsity:sparsity for geom step 1
    nrows_g=2196 nrows=54 sparsity=.0108 nnzs=52069, refcount: 7>
  <dData1D:(new from dSpData1D) n=52069, refcount: 1>
refcount: 1>
new_DM -- step:     2
Re-using DM from previous geometries...
Number of DMs in history: 1
 DM extrapolation coefficients:
1   1.00000
New DM after history re-use:
<dSpData2D:SpM extrapolated using coords
  <sparsity:sparsity for geom step 1
    nrows_g=2196 nrows=54 sparsity=.0108 nnzs=52069, refcount: 9>
  <dData2D:(temp array for extrapolation) n=52069 m=1, refcount: 1>
refcount: 1>
No. of atoms with KB's overlaping orbs in proc 0. Max # of overlaps:     105     233

[...]

        iscf     Eharris(eV)        E_KS(eV)     FreeEng(eV)     dDmax    Ef(eV) dHmax(eV)
   scf:    1   -39918.399126   -39917.973874   -39917.973874  0.012776 -4.273582  0.296537
   scf:    2   -39916.400053   -39917.487040   -39917.487040  0.011257 -3.837118  1.601395
   scf:    3   -39918.066826   -39917.992605   -39917.992605  0.009496 -4.275759  0.022767
   scf:    4   -39917.995973   -39917.994426   -39917.994426  0.000362 -4.275683  0.010167
   scf:    5   -39917.995006   -39917.994748   -39917.994748  0.000208 -4.276308  0.003866
   scf:    6   -39917.994757   -39917.994762   -39917.994762  0.000060 -4.276743  0.006496
   scf:    7   -39917.994768   -39917.994769   -39917.994769  0.000048 -4.276669  0.001095
   scf:    8   -39917.994770   -39917.994770   -39917.994770  0.000012 -4.276691  0.000911

[...]

cgvc: Finished line minimization    1.  Mean atomic displacement =    0.0043

[...]

cgvc: Finished line minimization   10.  Mean atomic displacement =    0.0014

[...]

                        Begin CG opt. move =     30

outcell: Unit cell vectors (Ang):
       19.173802   -1.230000    0.000000
       10.652112   15.990000    0.000000
        0.000000    0.000000   40.000000

outcell: Cell vector modules (Ang)   :   19.213214   19.213214   40.000000
outcell: Cell angles (23,13,12) (deg):     90.0000     90.0000     60.0000
outcell: Cell volume (Ang**3)        :  12787.6480
<dSpData1D:S at geom step 30
  <sparsity:sparsity for geom step 30
    nrows_g=2196 nrows=54 sparsity=.0106 nnzs=51023, refcount: 7>
  <dData1D:(new from dSpData1D) n=51023, refcount: 1>
refcount: 1>
new_DM -- step:    31
Re-using DM from previous geometries...
Number of DMs in history: 1
 DM extrapolation coefficients:
1   1.00000
New DM after history re-use:
<dSpData2D:SpM extrapolated using coords
  <sparsity:sparsity for geom step 30
    nrows_g=2196 nrows=54 sparsity=.0106 nnzs=51023, refcount: 9>
  <dData2D:(temp array for extrapolation) n=51023 m=1, refcount: 1>
refcount: 1>
No. of atoms with KB's overlaping orbs in proc 0. Max # of overlaps:     103     227

InitMesh: MESH = 180 x 180 x 432 = 13996800
InitMesh: Mesh cutoff (required, used) =   300.000   322.366 Ry
New grid distribution [1]: sub = 2
New grid distribution [2]: sub = 2
New grid distribution [3]: sub = 2
Setting up quadratic distribution...

        iscf     Eharris(eV)        E_KS(eV)     FreeEng(eV)     dDmax    Ef(eV) dHmax(eV)
   scf:    1   -39918.490545   -39918.493485   -39918.493485  0.001102 -3.596713  0.054675
   scf:    2   -39918.451413   -39918.480582   -39918.480582  0.002242 -3.599258  0.272258
   scf:    3   -39918.496147   -39918.494081   -39918.494081  0.001864 -3.597007  0.003182
   scf:    4   -39918.494113   -39918.494103   -39918.494103  0.000109 -3.597008  0.000770
   scf:    5   -39918.494105   -39918.494104   -39918.494104  0.000014 -3.597004  0.000379

SCF Convergence by DM+H criterion
max |DM_out - DM_in|         :     0.0000135747
max |H_out - H_in|      (eV) :     0.0003787840
SCF cycle converged after 5 iterations

Using DM_out to compute the final energy and forces
No. of atoms with KB's overlaping orbs in proc 0. Max # of overlaps:     103     227
System symmetry is of type slab but no DFTD3.Periodic list was found. Attempting to guess symmetry for D3.
Could not guess the right amount of periodicity directions for D3.
Enabling periodicity on all directions.

siesta: E_KS(eV) =           -39918.4955

siesta: Atomic forces (eV/Ang):
   Tot   -0.000000   -0.000001   -0.000000
   Max    0.007791
   Res    0.002883    sqrt( Sum f_i^2 / 3N )
   Max    0.007791    constrained

Stress tensor Voigt[x,y,z,yz,xz,xy] (kbar):      -25.67      -25.67       -4.07        0.00        0.00        0.00
(Free)E + p*V (eV/cell)   -39771.0872
Target enthalpy (eV/cell)   -39918.4955

outcoor: Relaxed atomic coordinates (Ang):
    1.42045087    0.00098920   18.15967614   1       1  C
    5.68137814    0.00220659   18.22035737   1       2  C
    9.94188213   -0.00011706   18.25585896   1       3  C
   14.20200276   -0.00203216   18.21116614   1       4  C
   18.46272178   -0.00035083   18.15967592   1       5  C
    3.55037177    1.23216000   18.18880011   1       6  C
    7.81119009    1.23127060   18.24962335   1       7  C
   12.07166887    1.22870775   18.24598330   1       8  C
   16.33153527    1.22863012   18.18880068   1       9  C
   20.59264825    1.23115684   18.17517133   1      10  C
    5.68044393    2.46201104   18.22880113   1      11  C
    9.94132282    2.46009529   18.26242946   1      12  C
   14.20141750    2.45840069   18.22880201   1      13  C
   18.46140060    2.45991827   18.18872131   1      14  C
    3.54935293    3.69172023   18.21116698   1      15  C
    7.81098654    3.69105052   18.25852714   1      16  C
   12.07176610    3.68898511   18.25852685   1      17  C
   16.33120305    3.68911065   18.22035734   1      18  C
   20.59194984    3.69076924   18.21127556   1      19  C
    5.68037289    4.92127238   18.24598367   1      20  C
    9.94197382    4.91999906   18.26788674   1      21  C
   14.20189627    4.91905218   18.24962273   1      22  C
   18.46145019    4.91988169   18.22867726   1      23  C
   22.72321862    4.92063475   18.24027495   1      24  C
    7.81195929    6.15051388   18.26242962   1      25  C
   12.07263752    6.14938807   18.26242994   1      26  C
   16.33193641    6.14962604   18.24873896   1      27  C
   20.59246061    6.15008399   18.24674833   1      28  C
    5.68107310    7.38013477   18.25586115   1      29  C
    9.94316492    7.37996169   18.25852779   1      30  C
   14.20296282    7.37997826   18.25585960   1      31  C
   18.46236671    7.38020784   18.25739352   1      32  C
   22.72411234    7.37969802   18.25792524   1      33  C
    7.81283193    8.60967475   18.24962515   1      34  C
   12.07387725    8.61001645   18.24598322   1      35  C
   16.33317834    8.61049112   18.25792466   1      36  C
   20.59349230    8.60969351   18.26510677   1      37  C
   24.85590456    8.60905587   18.24874008   1      38  C
    9.94405627    9.83958418   18.22880193   1      39  C
   14.20401385    9.84079686   18.24027471   1      40  C
   18.46369467    9.84066344   18.26510510   1      41  C
   22.72497340    9.83877173   18.25739348   1      42  C
    7.81333760   11.06867835   18.22035709   1      43  C
   12.07456183   11.07030882   18.21116625   1      44  C
   16.33412637   11.07136291   18.24674784   1      45  C
   20.59464578   11.06963768   18.26510514   1      46  C
   24.85613767   11.06814143   18.22867553   1      47  C
    9.94401114   12.29920664   18.18879998   1      48  C
   14.20455253   12.30146283   18.21127461   1      49  C
   18.46449286   12.30101588   18.25739265   1      50  C
   22.72524645   12.29854911   18.24674732   1      51  C
   26.98655261   12.29808070   18.18872101   1      52  C
   12.07411625   13.53066549   18.17517250   1      53  C
   16.33424675   13.53197321   18.22867694   1      54  C
   20.59454328   13.52980586   18.25792457   1      55  C
   24.85533099   13.52776568   18.21127613   1      56  C
    9.94274486   14.75935844   18.15967539   1      57  C
   14.20387898   14.76199835   18.18872298   1      58  C
   18.46399276   14.76131403   18.24873931   1      59  C
   22.72460161   14.75856410   18.24027509   1      60  C
[...]
   19.33618295   11.15037109   21.73489325   1     230  C
   23.56200082   10.60769770   21.75325270   1     231  C
   13.15363141   13.18546513   21.81127864   1     232  C
   17.38006983   12.64144518   21.75325163   1     233  C
   21.60621450   12.09947677   21.74260651   1     234  C
   25.83129531   11.55560919   21.78872390   1     235  C
   11.19842116   14.67880984   21.84032397   1     236  C
   15.42450718   14.13275460   21.78872444   1     237  C
   19.65063095   13.59036141   21.74207481   1     238  C
   23.87628555   13.04815361   21.77132446   1     239  C
   28.10132813   12.50252113   21.82482720   1     240  C
   13.46944124   15.62520596   21.82482866   1     241  C
   17.69503589   15.08121391   21.75972503   1     242  C
   21.92107357   14.53954496   21.75125992   1     243  C
   26.14635505   13.99588949   21.81127896   1     244  C

siesta: Program's energy decomposition (eV):
siesta: Ebs     =    -12951.350931
siesta: Eions   =     68847.456686
siesta: Ena     =     15202.761532
siesta: Ekin    =     27729.485492
siesta: Enl     =     -1406.942109
siesta: Eso     =         0.000000
siesta: Edftu   =         0.000000
siesta: DEna    =      1598.186788
siesta: DUscf   =        81.290231
siesta: DUext   =         0.000000
siesta: Ex      =    -13014.630480
siesta: Ec      =     -1237.439527
siesta: Exc     =    -14252.070007
siesta: EbV     =         0.000000
siesta: eta*DQ  =         0.000000
siesta: Emadel  =         0.000000
siesta: Emeta   =         0.000000
siesta: Emolmec =         0.000000
siesta: Ekinion =         0.000000
siesta: Eharris =    -39918.494105
siesta: Etot    =    -39918.495524
siesta: FreeEng =    -39918.495524

siesta: Final energy (eV):
siesta:  Band Struct. =  -12951.350931
siesta:       Kinetic =   27729.485492
siesta:       Hartree =  645298.900719
siesta:         Edftu =       0.000000
siesta:       Eso     =       0.000000
siesta:    Ext. field =       0.000000
siesta:         Exch. =  -13014.630480
siesta:         Corr. =   -1237.439527
siesta:     Bulk bias =       0.000000
siesta:   Exch.-corr. =  -14252.070007
siesta:  Ion-electron =-1315697.105245
siesta:       Ion-ion =  617026.044282
siesta:       Ekinion =       0.000000
siesta: D3 dispersion =     -23.750764
siesta:         Total =  -39918.495524
siesta:         Fermi =      -3.597004

siesta: Stress tensor (static) (eV/Ang**3):
siesta:    -0.016020    0.000001    0.000000
siesta:     0.000001   -0.016021    0.000000
siesta:     0.000000    0.000000   -0.002542

siesta: Cell volume =      12787.647974 Ang**3

siesta: Pressure (static):
siesta:                Solid            Molecule  Units
siesta:           0.00012555          0.00012571  Ry/Bohr**3
siesta:           0.01152740          0.01154181  eV/Ang**3
siesta:          18.46892695         18.49202188  kBar
(Free)E+ p_basis*V_orbitals  =      -39771.449907
(Free)Eharris+ p_basis*V_orbitals  =      -39771.448488

siesta: Electric dipole (a.u.)  =   -0.000000    0.000000    0.000000
siesta: Electric dipole (Debye) =   -0.000000    0.000000    0.000000

cite: Please see "Graphene.bib" for an exhaustive BiBTeX file.
cite: Please clearly indicate Siesta version in published work: 5.0.0-alpha-112-g6e4f53aee-dirty
cite: This calculation has made use of the following articles
cite: which are encouraged to be cited in a published work.
        Primary SIESTA paper
          DOI: www.doi.org/10.1088/0953-8984/14/11/302

>> End of run:  30-NOV-2024  20:39:54
Job completed