Runtime information:
* Directory : /n/holylabs/LABS/kaxiras_lab/axzhu/projects/AM207-final-project/N_6/PSO-2params
>> Start of run:  30-NOV-2024  21:14:06

reinit: Reading from standard input
reinit: Dumping input in INPUT_TMP.69162
************************** Dump of input data file ****************************
#	Basic Information	#
SystemName      Graphene
SystemLabel     Graphene
#	Structural Information		#
%include structure.fdf
#       DFT Parameters          #
SolutionMethod diagon           # Method of solving system. Can change to OrderN, transiesta, etc.
#Diag.Algorithm MRRR
#NumberOfEigenStates -20 # this will include first 10 conduction bands
XC.Functional   GGA
XC.Authors      PBE
DFTD3 true
Spin non-polarized
Mesh.Cutoff 300 Ry              # Cut off plane waves with kinetic energy higher than this.
MaxSCFIterations 300            # Max number of iterations in the SCF loop.
DM.UseSaveDM true
MinSCFIterations       3
SCF.DM.Tolerance       0.0001
SCF.Mixer.Weight       0.10
SCF.Mixer.History      12
SCF.Mix.First          true
#             Basis             #
#PAO.BasisSize   DZP
PAO.Basis < basis.fdf
#	k-points, Bands, DOS		#
%block kgrid_Monkhorst_Pack
   1  0  0  0.0
   0  1  0  0.0
   0  0  1  0.0
%endblock kgrid_Monkhorst_Pack
#BandLinesScale ReciprocalLatticeVectors
#%block BandLines
#1   0.6666666667  0.3333333333  0.0000000000  K
#10  0.0000000000  0.0000000000  0.0000000000  Gamma
#10  0.5000000000  0.0000000000  0.0000000000  M
#10  0.6666666667  0.3333333333  0.0000000000  K
#%endblock BandLines
# Local density of states (LDOS)
# %block LocalDensityOfStates
# EF 8.40 8.50 eV
# %endblock LocalDensityOfStates
#             Wavefunctions             #
#WaveFuncKPointsScale ReciprocalLatticeVectors
#%block WaveFuncKPoints
#0.666 0.333 0.000 from 4375 to 4378 # K wavefuncs 4375 to 4378
#0.000 0.000 0.000 from 4375 to 4378 # Gamma wavefuncs 4375 to 4378
#0.500 0.000 0.000 from 4375 to 4378 # M wavefuncs 4375 to 4378
#%endblock WaveFuncKPoints
#WriteDenchar T
#       Geometry Optimisation           #
MD.UseSaveXV true
MD.TypeOfRun           CG                  # Conjugate Gradient
MD.NumCGsteps          200                 # Max number of steps
MD.MaxForceTol         0.01    eV/Ang      # 10 meV/Ang
MD.VariableCell        false               # Don't relax cell
MD.MaxCGDispl          0.5 Bohr            # Maximum displacement of any atom
# Fix COM in Z direction only
%block Geometry.Constraints
 center all 0.0 0.0 1.0
%endblock Geometry.Constraints
************************** End of input data file *****************************

reinit: -----------------------------------------------------------------------
reinit: System Name: Graphene
reinit: -----------------------------------------------------------------------
reinit: System Label: Graphene
reinit: -----------------------------------------------------------------------

initatom: Reading input for the pseudopotentials and atomic orbitals ----------
Species number:   1 Atomic number:    6 Label: C

---- Processing specs for species: C
Ground state valence configuration:   2s02  2p02
Reading pseudopotential information in PSML from:
  C.psml
PSML file version: 1.1
GGA--PBE XC_GGA_X_PBE--XC_GGA_C_PBE pb
 Using ATOM defaults for log grid...
PSML uuid: 297821e0-be41-11e7-6802-e1ff7dfff095

---- Pseudopotential check for C

Pseudized shells:
2s( 2.00) rc: 1.20
2p( 2.00) rc: 1.26
Valence configuration for ps generation: 2s:2p: Total charge:   4.000000
For C, standard SIESTA heuristics set lmxkb to 3
 (one more than the basis l, including polarization orbitals).
Use PS.lmax or PS.KBprojectors blocks to override.
C pseudopotential only contains V_ls up to l=1 -- lmxkb reset.

<basis_specs>
C                    Z=   6    Mass=  12.011        Charge= 0.99941
Lmxo=2 Lmxkb= 1    BasisType=split      Semic=F
L=0  Nsemic=0  Cnfigmx=2
          i=1  nzeta=1  polorb=0  (2s)
            splnorm:   0.15000
               vcte:    132.57
               rinn:    4.5256
               qcoe:    0.0000
               qyuk:    0.0000
               qwid:   0.10000E-01
                rcs:    6.0009
            lambdas:    1.0000
L=1  Nsemic=0  Cnfigmx=2
          i=1  nzeta=1  polorb=0  (2p)
            splnorm:   0.15000
               vcte:    6.0639
               rinn:    6.0646
               qcoe:    0.0000
               qyuk:    0.0000
               qwid:   0.10000E-01
                rcs:    6.7108
            lambdas:    1.0000
L=2  Nsemic=0  Cnfigmx=3
          i=1  nzeta=1  polorb=0  (3d)
            splnorm:   0.15000
               vcte:    14.478
               rinn:    4.3208
               qcoe:    0.0000
               qyuk:    0.0000
               qwid:   0.10000E-01
                rcs:    6.2254
            lambdas:    1.0000
L=0  Nkbl=1  erefs: 0.17977+309
L=1  Nkbl=1  erefs: 0.17977+309
</basis_specs>

atom: Called for C                     (Z =   6)
NOTE: C pseudopotential has channels up to l= 1
NOTE: PAOs with higher l will be generated with V_local

read_vps: Pseudopotential generation method:
read_vps: ONCVPSP-3.Hamann's oncvpsp
Valence charge in pseudo generation:    4.00000

read_vps: Pseudopotential includes a core correction:
read_vps: Pseudo-core for xc-correction

xc_check: Exchange-correlation functional:
xc_check: GGA Perdew, Burke & Ernzerhof 1996
Got Vlocal (oncv-fit) from psml data
Choosing vlocal chloc cutoff:  4.139772
qtot up to nchloc:    3.99998844
atom: Maximum radius for chlocal:    4.13977
atom: Maximum radius for r*vlocal+2*Zval:    4.13977
Reading KB projs from C psml data
Using scalar-relativistic projectors in PSML file

PSML: Kleinman-Bylander projectors:
   l= 0   rc=  1.231096   Ekb= 12.963096
   l= 0   rc=  1.231096   Ekb=  0.771007
   l= 1   rc=  1.294237   Ekb= -8.399923
   l= 1   rc=  1.294237   Ekb= -1.755033

PSML: Total number of  Kleinman-Bylander projectors:   8
atom: -------------------------------------------------------------------------

atom: SANKEY-TYPE ORBITALS:

atom: basis set generated (by rescaling the valence charge)
atom: for a cation of charge   0.9994

SPLIT: Orbitals with angular momentum L= 0

SPLIT: Basis orbitals for state 2s

   izeta = 1
                 lambda =    1.000000
                     rc =    6.099293
                 energy =   -2.079355
                kinetic =    1.090115
    potential(screened) =   -3.169470
       potential(ionic) =   -5.727963

[...]

SPLIT: Basis orbitals for state 2p

   izeta = 1
                 lambda =    1.000000
                     rc =    6.740804
                 energy =   -1.441657
                kinetic =    3.222058
    potential(screened) =   -4.663715
       potential(ionic) =   -7.206130
*Note: V_local used for l= 2

** Using vlocal for PAOs with L= 2

SPLIT: Orbitals with angular momentum L= 2

SPLIT: Basis orbitals for state 3d

   izeta = 1
                 lambda =    1.000000
                     rc =    6.253707
                 energy =    0.017329
                kinetic =    1.197074
    potential(screened) =   -1.179745
       potential(ionic) =   -2.838380
atom: Total number of Sankey-type orbitals:  9

atm_pop: Valence configuration (for local Pseudopot. screening):
 2s( 2.00)
 2p( 2.00)
 3d( 0.00)
Vna: chval, zval:    4.00000   4.00000

Vna:  Cut-off radius for the neutral-atom potential:   6.740804
comcore: Pseudo-core radius Rcore=  1.682861

atom: _________________________________________________________________________

prinput: Basis input

PAO.BasisType split

%block ChemicalSpeciesLabel
    1    6 C                       # Species index, atomic number, species label
%endblock ChemicalSpeciesLabel

%block PAO.Basis                 # Define Basis set
# WARNING: This information might be incomplete!
C                     3   0.999            # Label, l-shells, ionic net charge
 n=2   0   1                         # n, l, Nzeta
   6.099
   1.000
 n=2   1   1                         # n, l, Nzeta
   6.741
   1.000
 n=3   2   1                         # n, l, Nzeta
   6.254
   1.000
%endblock PAO.Basis

prinput: ----------------------------------------------------------------------

Dumping basis to NetCDF file C.ion.nc
coor:   Atomic-coordinates input format  =     Cartesian coordinates
coor:                                          (in Angstroms)

siesta: WARNING: XV file not found

siesta: Atomic coordinates (Bohr) and species
siesta:      2.68394   0.00000  34.58473  1        1
siesta:     10.73577   0.00000  34.58473  1        2
siesta:     18.78760   0.00000  34.58473  1        3
siesta:     26.83943   0.00000  34.58473  1        4
siesta:     34.89126   0.00000  34.58473  1        5
siesta:     42.94309   0.00000  34.58473  1        6
siesta:      6.70986   2.32436  34.58473  1        7
siesta:     14.76169   2.32436  34.58473  1        8
siesta:     22.81352   2.32436  34.58473  1        9
siesta:     30.86535   2.32436  34.58473  1       10
siesta:     38.91718   2.32436  34.58473  1       11
siesta:     46.96901   2.32436  34.58473  1       12
siesta:     10.73577   4.64873  34.58473  1       13
siesta:     18.78760   4.64873  34.58473  1       14
siesta:     26.83943   4.64873  34.58473  1       15
siesta:     34.89126   4.64873  34.58473  1       16
siesta:     42.94309   4.64873  34.58473  1       17
siesta:      6.70986   6.97309  34.58473  1       18
siesta:     14.76169   6.97309  34.58473  1       19
siesta:     22.81352   6.97309  34.58473  1       20
siesta:     30.86535   6.97309  34.58473  1       21
siesta:     38.91718   6.97309  34.58473  1       22
siesta:     46.96901   6.97309  34.58473  1       23
siesta:     10.73577   9.29745  34.58473  1       24
siesta:     18.78760   9.29745  34.58473  1       25
siesta:     26.83943   9.29745  34.58473  1       26
siesta:     34.89126   9.29745  34.58473  1       27
siesta:     42.94309   9.29745  34.58473  1       28
siesta:     50.99492   9.29745  34.58473  1       29
siesta:     14.76169  11.62182  34.58473  1       30
siesta:     22.81352  11.62182  34.58473  1       31
siesta:     30.86535  11.62182  34.58473  1       32
siesta:     38.91718  11.62182  34.58473  1       33
siesta:     46.96901  11.62182  34.58473  1       34
siesta:     10.73577  13.94618  34.58473  1       35
siesta:     18.78760  13.94618  34.58473  1       36
siesta:     26.83943  13.94618  34.58473  1       37
siesta:     34.89126  13.94618  34.58473  1       38
siesta:     42.94309  13.94618  34.58473  1       39
siesta:     50.99492  13.94618  34.58473  1       40
siesta:     14.76169  16.27054  34.58473  1       41
siesta:     22.81352  16.27054  34.58473  1       42
siesta:     30.86535  16.27054  34.58473  1       43
siesta:     38.91718  16.27054  34.58473  1       44
siesta:     46.96901  16.27054  34.58473  1       45
siesta:     55.02084  16.27054  34.58473  1       46
siesta:     18.78760  18.59491  34.58473  1       47
siesta:     26.83943  18.59491  34.58473  1       48
siesta:     34.89126  18.59491  34.58473  1       49
siesta:     42.94309  18.59491  34.58473  1       50
siesta:     50.99492  18.59491  34.58473  1       51
siesta:     14.76169  20.91927  34.58473  1       52
siesta:     22.81352  20.91927  34.58473  1       53
[...]
redata: ***********************************************************************

%block SCF.Mixers
  Pulay
%endblock SCF.Mixers

%block SCF.Mixer.Pulay
  # Mixing method
  method pulay
  variant stable

  # Mixing options
  weight 0.1000
  weight.linear 0.1000
  history 12
%endblock SCF.Mixer.Pulay

DFT-D3: loading default parameters for functional PBE.
DM_history_depth set to one: no extrapolation allowed by default for geometry relaxation
Size of DM history Fstack: 1
Total number of electrons:  1456.000000
Total ionic charge:  1456.000000

* ProcessorY, Blocksize:    8  51

* Orbital distribution balance (max,min):    63    51

 Kpoints in:            1 . Kpoints trimmed:            1

siesta: k-grid: Number of k-points = 1
siesta: k-points from Monkhorst-Pack grid
siesta: k-cutoff (effective) =    11.733 Ang
siesta: k-point supercell and displacements
siesta: k-grid:     1     0     0      0.000
siesta: k-grid:     0     1     0      0.000
siesta: k-grid:     0     0     1      0.000

diag: Algorithm                                     = D&C
diag: Parallel over k                               =   F
diag: Use parallel 2D distribution                  =   T
diag: Parallel block-size                           = 51
diag: Parallel distribution                         =     8 x     8
diag: Used triangular part                          = Lower
diag: Absolute tolerance                            =  0.100E-15
diag: Orthogonalization factor                      =  0.100E-05

siesta: Constraint v=[  0.00000,  0.00000,  1.00000] (364): center-dir
  [ 1 -- 364 ]

ts: **************************************************************
ts: Save H and S matrices                           =    F
ts: Save DM and EDM matrices                        =    F
ts: Only save the overlap matrix S                  =    F
ts: **************************************************************

************************ Begin: TS CHECKS AND WARNINGS ************************
************************ End: TS CHECKS AND WARNINGS **************************

                        Begin CG opt. move =      0

outcell: Unit cell vectors (Ang):
       23.434647   -1.230000    0.000000
       12.782535   19.680000    0.000000
        0.000000    0.000000   40.000000

outcell: Cell vector modules (Ang)   :   23.466904   23.466904   40.000000
outcell: Cell angles (23,13,12) (deg):     90.0000     90.0000     60.0000
outcell: Cell volume (Ang**3)        :  19076.6552
<dSpData1D:S at geom step 0
  <sparsity:sparsity for geom step 0
    nrows_g=3276 nrows=63 sparsity=.0056 nnzs=60234, refcount: 7>
  <dData1D:(new from dSpData1D) n=60234, refcount: 1>
refcount: 1>
new_DM -- step:     1
Initializing Density Matrix...

Attempting to read DM from file... Failed...
DM filled with atomic data:
<dSpData2D:DM initialized from atoms
  <sparsity:sparsity for geom step 0
    nrows_g=3276 nrows=63 sparsity=.0056 nnzs=60234, refcount: 8>
  <dData2D:DM n=60234 m=1, refcount: 1>
refcount: 1>
No. of atoms with KB's overlaping orbs in proc 0. Max # of overlaps:     121     230

InitMesh: MESH = 216 x 216 x 432 = 20155392
InitMesh: Mesh cutoff (required, used) =   300.000   312.203 Ry
New grid distribution [1]: sub = 2
New grid distribution [2]: sub = 2
New grid distribution [3]: sub = 2
Setting up quadratic distribution...

stepf: Fermi-Dirac step function

siesta: Program's energy decomposition (eV):
siesta: Ebs     =    -21273.583899
siesta: Eions   =    102706.861614
siesta: Ena     =     22679.157403
siesta: Ekin    =     40113.203484
siesta: Enl     =     -1806.181942
siesta: Eso     =         0.000000
siesta: Edftu   =         0.000000
siesta: DEna    =      3079.477543
siesta: DUscf   =       197.094924
siesta: DUext   =         0.000000
siesta: Ex      =    -19188.444156
siesta: Ec      =     -1850.570786
siesta: Exc     =    -21039.014942
siesta: EbV     =         0.000000
siesta: eta*DQ  =         0.000000
siesta: Emadel  =         0.000000
siesta: Emeta   =         0.000000
siesta: Emolmec =         0.000000
siesta: Ekinion =         0.000000
siesta: Eharris =    -60922.698062
siesta: Etot    =    -59483.125145
siesta: FreeEng =    -59483.125145

SCF Convergence by DM+H criterion
max |DM_out - DM_in|         :     0.0000502940
max |H_out - H_in|      (eV) :     0.0003856779
SCF cycle converged after 10 iterations

Using DM_out to compute the final energy and forces
No. of atoms with KB's overlaping orbs in proc 0. Max # of overlaps:     121     230
System symmetry is of type slab but no DFTD3.Periodic list was found. Attempting to guess symmetry for D3.
Could not guess the right amount of periodicity directions for D3.
Enabling periodicity on all directions.

siesta: E_KS(eV) =           -59549.3432

siesta: E_KS - E_eggbox =    -59549.3432

siesta: Atomic forces (eV/Ang):
   Tot    0.000000    0.000000   -0.019381
   Max    0.032135
   Res    0.010368    sqrt( Sum f_i^2 / 3N )
   Max    0.032135    constrained

Stress tensor Voigt[x,y,z,yz,xz,xy] (kbar):      -25.76      -25.76       -4.86        0.00        0.00        0.00
(Free)E + p*V (eV/cell)   -59325.5787
Target enthalpy (eV/cell)   -59549.3432

[...]

outcell: Cell vector modules (Ang)   :   23.466904   23.466904   40.000000
outcell: Cell angles (23,13,12) (deg):     90.0000     90.0000     60.0000
outcell: Cell volume (Ang**3)        :  19076.6552
<dSpData1D:S at geom step 1
  <sparsity:sparsity for geom step 1
    nrows_g=3276 nrows=63 sparsity=.0056 nnzs=60124, refcount: 7>
  <dData1D:(new from dSpData1D) n=60124, refcount: 1>
refcount: 1>
new_DM -- step:     2
Re-using DM from previous geometries...
Number of DMs in history: 1
 DM extrapolation coefficients:
1   1.00000
New DM after history re-use:
<dSpData2D:SpM extrapolated using coords
  <sparsity:sparsity for geom step 1
    nrows_g=3276 nrows=63 sparsity=.0056 nnzs=60124, refcount: 9>
  <dData2D:(temp array for extrapolation) n=60124 m=1, refcount: 1>
refcount: 1>
No. of atoms with KB's overlaping orbs in proc 0. Max # of overlaps:     121     230

[...]

        iscf     Eharris(eV)        E_KS(eV)     FreeEng(eV)     dDmax    Ef(eV) dHmax(eV)
   scf:    1   -59549.323411   -59549.016424   -59549.016424  0.011331 -3.844923  0.219339
   scf:    2   -59547.676996   -59548.600565   -59548.600565  0.006716 -3.889451  1.320895
   scf:    3   -59549.089673   -59549.031342   -59549.031342  0.005747 -3.846543  0.019714
   scf:    4   -59549.034215   -59549.032861   -59549.032861  0.000209 -3.846405  0.013100
   scf:    5   -59549.034342   -59549.033672   -59549.033672  0.000261 -3.846702  0.003243
   scf:    6   -59549.033770   -59549.033732   -59549.033732  0.000082 -3.847223  0.004125
   scf:    7   -59549.033710   -59549.033729   -59549.033729  0.000045 -3.847093  0.005356
   scf:    8   -59549.033738   -59549.033736   -59549.033736  0.000021 -3.847177  0.000312

[...]

cgvc: Finished line minimization    1.  Mean atomic displacement =    0.0022

[...]

cgvc: Finished line minimization   13.  Mean atomic displacement =    0.0004

                        Begin CG opt. move =     37

outcell: Unit cell vectors (Ang):
       23.434647   -1.230000    0.000000
       12.782535   19.680000    0.000000
        0.000000    0.000000   40.000000

outcell: Cell vector modules (Ang)   :   23.466904   23.466904   40.000000
outcell: Cell angles (23,13,12) (deg):     90.0000     90.0000     60.0000
outcell: Cell volume (Ang**3)        :  19076.6552
<dSpData1D:S at geom step 37
  <sparsity:sparsity for geom step 37
    nrows_g=3276 nrows=63 sparsity=.0055 nnzs=59227, refcount: 7>
  <dData1D:(new from dSpData1D) n=59227, refcount: 1>
refcount: 1>
new_DM -- step:    38
Re-using DM from previous geometries...
Number of DMs in history: 1
 DM extrapolation coefficients:
1   1.00000
New DM after history re-use:
<dSpData2D:SpM extrapolated using coords
  <sparsity:sparsity for geom step 37
    nrows_g=3276 nrows=63 sparsity=.0055 nnzs=59227, refcount: 9>
  <dData2D:(temp array for extrapolation) n=59227 m=1, refcount: 1>
refcount: 1>
No. of atoms with KB's overlaping orbs in proc 0. Max # of overlaps:     119     226

InitMesh: MESH = 216 x 216 x 432 = 20155392
InitMesh: Mesh cutoff (required, used) =   300.000   312.203 Ry
New grid distribution [1]: sub = 2
New grid distribution [2]: sub = 2
New grid distribution [3]: sub = 2
Setting up quadratic distribution...

        iscf     Eharris(eV)        E_KS(eV)     FreeEng(eV)     dDmax    Ef(eV) dHmax(eV)
   scf:    1   -59549.492160   -59549.492062   -59549.492062  0.000100 -3.971173  0.012736
   scf:    2   -59549.487322   -59549.490610   -59549.490610  0.000554 -3.970511  0.068684
   scf:    3   -59549.492347   -59549.492131   -59549.492131  0.000460 -3.971061  0.001442
   scf:    4   -59549.492135   -59549.492134   -59549.492134  0.000028 -3.971058  0.000213

SCF Convergence by DM+H criterion
max |DM_out - DM_in|         :     0.0000278359
max |H_out - H_in|      (eV) :     0.0002129710
SCF cycle converged after 4 iterations

Using DM_out to compute the final energy and forces
No. of atoms with KB's overlaping orbs in proc 0. Max # of overlaps:     119     226
System symmetry is of type slab but no DFTD3.Periodic list was found. Attempting to guess symmetry for D3.
Could not guess the right amount of periodicity directions for D3.
Enabling periodicity on all directions.

siesta: E_KS(eV) =           -59549.4918

siesta: Atomic forces (eV/Ang):
   Tot   -0.000001   -0.000001    0.015298
   Max    0.006823
   Res    0.002429    sqrt( Sum f_i^2 / 3N )
   Max    0.006823    constrained

Stress tensor Voigt[x,y,z,yz,xz,xy] (kbar):      -25.90      -25.90       -4.05        0.00        0.00        0.00
(Free)E + p*V (eV/cell)   -59327.8466
Target enthalpy (eV/cell)   -59549.4918

outcoor: Relaxed atomic coordinates (Ang):
    1.42051388    0.00155407   18.16509770   1       1  C
    5.68148260    0.00383970   18.21446443   1       2  C
    9.94198139    0.00187519   18.26599613   1       3  C
   14.20208917   -0.00184333   18.26111531   1       4  C
   18.46233008   -0.00334992   18.20614215   1       5  C
   22.72304423   -0.00058011   18.16509785   1       6  C
    3.55005135    1.23325036   18.18735185   1       7  C
    7.81114154    1.23337347   18.24643082   1       8  C
   12.07149715    1.22993286   18.27413981   1       9  C
   16.33158957    1.22704644   18.24134596   1      10  C
   20.59159652    1.22780542   18.18735183   1      11  C
   24.85282188    1.23165422   18.17661630   1      12  C
    5.67998267    2.46371614   18.22242728   1      13  C
    9.94098028    2.46188432   18.27104638   1      14  C
   14.20126949    2.45829990   18.26909890   1      15  C
   18.46101598    2.45714733   18.22242692   1      16  C
   22.72120521    2.45975093   18.18733436   1      17  C
    3.54847140    3.69282652   18.20614241   1      18  C
    7.81049904    3.69299628   18.25670717   1      19  C
   12.07127914    3.69003255   18.28182840   1      20  C
   16.33116960    3.68758894   18.25670748   1      21  C
   20.59058171    3.68838547   18.21446524   1      22  C
   24.85143045    3.69127427   18.20627032   1      23  C
    5.67939717    4.92290506   18.24134705   1      24  C
    9.94119540    4.92158036   18.27941388   1      25  C
   14.20183837    4.91853374   18.27941569   1      26  C
   18.46094519    4.91795625   18.24643161   1      27  C
   22.72061795    4.91997116   18.22238303   1      28  C
   26.98263752    4.92187023   18.23509954   1      29  C
    7.81085465    6.15218833   18.26909899   1      30  C
   12.07239579    6.14999855   18.28663345   1      31  C
   16.33210512    6.14819542   18.27104785   1      32  C
   20.59091105    6.14927218   18.24606097   1      33  C
   24.85146447    6.15073781   18.24180195   1      34  C
    5.67989767    7.38155026   18.26111678   1      35  C
    9.94256225    7.38094851   18.28182731   1      36  C
   14.20334716    7.37901381   18.28182884   1      37  C
   18.46203414    7.37906730   18.26599711   1      38  C
   22.72127538    7.38017850   18.25648911   1      39  C
   26.98322100    7.38056401   18.26197384   1      40  C
    7.81194292    8.61080950   18.27414130   1      41  C
   12.07415523    8.60988200   18.27941440   1      42  C
   16.33374707    8.60925361   18.27414064   1      43  C
   20.59207907    8.61025252   18.26940526   1      44  C
   24.85256141    8.61007377   18.27034798   1      45  C
   29.11555762    8.60983608   18.27192026   1      46  C
    9.94410161    9.83991608   18.27104592   1      47  C
   14.20506258    9.83950635   18.26909862   1      48  C
   18.46363106    9.84026762   18.27191941   1      49  C
   22.72274944    9.84043635   18.27853488   1      50  C
   26.98450489    9.83913962   18.27729598   1      51  C
    7.81317219   11.06905196   18.26599727   1      52  C
   12.07551803   11.06940918   18.25670677   1      53  C
   16.33519916   11.07028865   18.26111588   1      54  C
   20.59376570   11.07116276   18.27729724   1      55  C
   24.85411514   11.06958801   18.28466875   1      56  C
   29.11655782   11.06813472   18.26940617   1      57  C
    9.94510036   12.29866540   18.24643024   1      58  C
   14.20619990   12.30004364   18.24134632   1      59  C
   18.46521889   12.30156305   18.26197478   1      60  C
[...]
   19.58597033   16.48687218   21.78012494   1     350  C
   23.82365710   16.04388074   21.74522559   1     351  C
   28.06079898   15.60089670   21.76562570   1     352  C
   32.29711597   15.15464975   21.81607521   1     353  C
   13.35866866   18.38157512   21.85895239   1     354  C
   17.59642596   17.93280113   21.81607567   1     355  C
   21.83408595   17.48826234   21.76002792   1     356  C
   26.07127325   17.04603639   21.75273138   1     357  C
   30.30820133   16.60183013   21.79965038   1     358  C
   34.54479866   16.15345723   21.84685503   1     359  C
   15.60759124   19.37994759   21.84685584   1     360  C
   19.84479498   18.93329359   21.78679860   1     361  C
   24.08208523   18.49045664   21.75014834   1     362  C
   28.31916785   18.04770564   21.77581605   1     363  C
   32.55609470   17.60158084   21.83567844   1     364  C

siesta: Program's energy decomposition (eV):
siesta: Ebs     =    -19319.144476
siesta: Eions   =    102706.861614
siesta: Ena     =     22679.480656
siesta: Ekin    =     41368.446338
siesta: Enl     =     -2098.877698
siesta: Eso     =         0.000000
siesta: Edftu   =         0.000000
siesta: DEna    =      2384.038465
siesta: DUscf   =       121.248890
siesta: DUext   =         0.000000
siesta: Ex      =    -19415.399003
siesta: Ec      =     -1846.095323
siesta: Exc     =    -21261.494327
siesta: EbV     =         0.000000
siesta: eta*DQ  =         0.000000
siesta: Emadel  =         0.000000
siesta: Emeta   =         0.000000
siesta: Emolmec =         0.000000
siesta: Ekinion =         0.000000
siesta: Eharris =    -59549.492135
siesta: Etot    =    -59549.491847
siesta: FreeEng =    -59549.491847

siesta: Final energy (eV):
siesta:  Band Struct. =  -19319.144476
siesta:       Kinetic =   41368.446338
siesta:       Hartree =  963138.802077
siesta:         Edftu =       0.000000
siesta:       Eso     =       0.000000
siesta:    Ext. field =       0.000000
siesta:         Exch. =  -19415.399003
siesta:         Corr. =   -1846.095323
siesta:     Bulk bias =       0.000000
siesta:   Exch.-corr. =  -21261.494327
siesta:  Ion-electron =-1963720.308164
siesta:       Ion-ion =  920960.534786
siesta:       Ekinion =       0.000000
siesta: D3 dispersion =     -35.472558
siesta:         Total =  -59549.491847
siesta:         Fermi =      -3.971058

siesta: Stress tensor (static) (eV/Ang**3):
siesta:    -0.016163    0.000001    0.000000
siesta:     0.000001   -0.016165   -0.000000
siesta:     0.000000    0.000000   -0.002528

siesta: Cell volume =      19076.655174 Ang**3

siesta: Pressure (static):
siesta:                Solid            Molecule  Units
siesta:           0.00012654          0.00012633  Ry/Bohr**3
siesta:           0.01161867          0.01159931  eV/Ang**3
siesta:          18.61515390         18.58414441  kBar
(Free)E+ p_basis*V_orbitals  =      -59330.128714
(Free)Eharris+ p_basis*V_orbitals  =      -59330.129001

siesta: Electric dipole (a.u.)  =   -0.000000    0.000000   -0.000155
siesta: Electric dipole (Debye) =   -0.000000    0.000000   -0.000393

cite: Please see "Graphene.bib" for an exhaustive BiBTeX file.
cite: Please clearly indicate Siesta version in published work: 5.0.0-alpha-112-g6e4f53aee-dirty
cite: This calculation has made use of the following articles
cite: which are encouraged to be cited in a published work.
        Primary SIESTA paper
          DOI: www.doi.org/10.1088/0953-8984/14/11/302

>> End of run:  30-NOV-2024  21:40:46
Job completed