Runtime information:
* Directory : /n/holylabs/LABS/kaxiras_lab/axzhu/projects/AM207-final-project/N_8/PSO_z
>> Start of run:   1-DEC-2024  15:41:19

reinit: Reading from standard input
reinit: Dumping input in INPUT_TMP.98479
************************** Dump of input data file ****************************
#	Basic Information	#
SystemName      Graphene
SystemLabel     Graphene
#	Structural Information		#
%include structure.fdf
#       DFT Parameters          #
SolutionMethod diagon           # Method of solving system. Can change to OrderN, transiesta, etc.
#Diag.Algorithm MRRR
#NumberOfEigenStates -20 # this will include first 10 conduction bands
XC.Functional   GGA
XC.Authors      PBE
DFTD3 true
Spin non-polarized
Mesh.Cutoff 300 Ry              # Cut off plane waves with kinetic energy higher than this.
MaxSCFIterations 300            # Max number of iterations in the SCF loop.
DM.UseSaveDM true
MinSCFIterations       3
SCF.DM.Tolerance       0.0001
SCF.Mixer.Weight       0.10
SCF.Mixer.History      12
SCF.Mix.First          true
#             Basis             #
#PAO.BasisSize   DZP
PAO.Basis < basis.fdf
#	k-points, Bands, DOS		#
%block kgrid_Monkhorst_Pack
   1  0  0  0.0
   0  1  0  0.0
   0  0  1  0.0
%endblock kgrid_Monkhorst_Pack
#BandLinesScale ReciprocalLatticeVectors
#%block BandLines
#1   0.6666666667  0.3333333333  0.0000000000  K
#10  0.0000000000  0.0000000000  0.0000000000  Gamma
#10  0.5000000000  0.0000000000  0.0000000000  M
#10  0.6666666667  0.3333333333  0.0000000000  K
#%endblock BandLines
# Local density of states (LDOS)
# %block LocalDensityOfStates
# EF 8.40 8.50 eV
# %endblock LocalDensityOfStates
#             Wavefunctions             #
#WaveFuncKPointsScale ReciprocalLatticeVectors
#%block WaveFuncKPoints
#0.666 0.333 0.000 from 4375 to 4378 # K wavefuncs 4375 to 4378
#0.000 0.000 0.000 from 4375 to 4378 # Gamma wavefuncs 4375 to 4378
#0.500 0.000 0.000 from 4375 to 4378 # M wavefuncs 4375 to 4378
#%endblock WaveFuncKPoints
#WriteDenchar T
#       Geometry Optimisation           #
MD.UseSaveXV true
MD.TypeOfRun           CG                  # Conjugate Gradient
MD.NumCGsteps          200                 # Max number of steps
MD.MaxForceTol         0.01    eV/Ang      # 10 meV/Ang
MD.VariableCell        false               # Don't relax cell
MD.MaxCGDispl          0.5 Bohr            # Maximum displacement of any atom
# Fix COM in Z direction only
%block Geometry.Constraints
 center all 0.0 0.0 1.0
%endblock Geometry.Constraints
************************** End of input data file *****************************

reinit: -----------------------------------------------------------------------
reinit: System Name: Graphene
reinit: -----------------------------------------------------------------------
reinit: System Label: Graphene
reinit: -----------------------------------------------------------------------

initatom: Reading input for the pseudopotentials and atomic orbitals ----------
Species number:   1 Atomic number:    6 Label: C

---- Processing specs for species: C
Ground state valence configuration:   2s02  2p02
Reading pseudopotential information in PSML from:
  C.psml
PSML file version: 1.1
GGA--PBE XC_GGA_X_PBE--XC_GGA_C_PBE pb
 Using ATOM defaults for log grid...
PSML uuid: 297821e0-be41-11e7-6802-e1ff7dfff095

---- Pseudopotential check for C

Pseudized shells:
2s( 2.00) rc: 1.20
2p( 2.00) rc: 1.26
Valence configuration for ps generation: 2s:2p: Total charge:   4.000000
For C, standard SIESTA heuristics set lmxkb to 3
 (one more than the basis l, including polarization orbitals).
Use PS.lmax or PS.KBprojectors blocks to override.
C pseudopotential only contains V_ls up to l=1 -- lmxkb reset.

<basis_specs>
C                    Z=   6    Mass=  12.011        Charge= 0.99941
Lmxo=2 Lmxkb= 1    BasisType=split      Semic=F
L=0  Nsemic=0  Cnfigmx=2
          i=1  nzeta=1  polorb=0  (2s)
            splnorm:   0.15000
               vcte:    132.57
               rinn:    4.5256
               qcoe:    0.0000
               qyuk:    0.0000
               qwid:   0.10000E-01
                rcs:    6.0009
            lambdas:    1.0000
L=1  Nsemic=0  Cnfigmx=2
          i=1  nzeta=1  polorb=0  (2p)
            splnorm:   0.15000
               vcte:    6.0639
               rinn:    6.0646
               qcoe:    0.0000
               qyuk:    0.0000
               qwid:   0.10000E-01
                rcs:    6.7108
            lambdas:    1.0000
L=2  Nsemic=0  Cnfigmx=3
          i=1  nzeta=1  polorb=0  (3d)
            splnorm:   0.15000
               vcte:    14.478
               rinn:    4.3208
               qcoe:    0.0000
               qyuk:    0.0000
               qwid:   0.10000E-01
                rcs:    6.2254
            lambdas:    1.0000
L=0  Nkbl=1  erefs: 0.17977+309
L=1  Nkbl=1  erefs: 0.17977+309
</basis_specs>

atom: Called for C                     (Z =   6)
NOTE: C pseudopotential has channels up to l= 1
NOTE: PAOs with higher l will be generated with V_local

read_vps: Pseudopotential generation method:
read_vps: ONCVPSP-3.Hamann's oncvpsp
Valence charge in pseudo generation:    4.00000

read_vps: Pseudopotential includes a core correction:
read_vps: Pseudo-core for xc-correction

xc_check: Exchange-correlation functional:
xc_check: GGA Perdew, Burke & Ernzerhof 1996
Got Vlocal (oncv-fit) from psml data
Choosing vlocal chloc cutoff:  4.139772
qtot up to nchloc:    3.99998844
atom: Maximum radius for chlocal:    4.13977
atom: Maximum radius for r*vlocal+2*Zval:    4.13977
Reading KB projs from C psml data
Using scalar-relativistic projectors in PSML file

PSML: Kleinman-Bylander projectors:
   l= 0   rc=  1.231096   Ekb= 12.963096
   l= 0   rc=  1.231096   Ekb=  0.771007
   l= 1   rc=  1.294237   Ekb= -8.399923
   l= 1   rc=  1.294237   Ekb= -1.755033

PSML: Total number of  Kleinman-Bylander projectors:   8
atom: -------------------------------------------------------------------------

atom: SANKEY-TYPE ORBITALS:

atom: basis set generated (by rescaling the valence charge)
atom: for a cation of charge   0.9994

SPLIT: Orbitals with angular momentum L= 0

SPLIT: Basis orbitals for state 2s

   izeta = 1
                 lambda =    1.000000
                     rc =    6.099293
                 energy =   -2.079355
                kinetic =    1.090115
    potential(screened) =   -3.169470
       potential(ionic) =   -5.727963

[...]

SPLIT: Basis orbitals for state 2p

   izeta = 1
                 lambda =    1.000000
                     rc =    6.740804
                 energy =   -1.441657
                kinetic =    3.222058
    potential(screened) =   -4.663715
       potential(ionic) =   -7.206130
*Note: V_local used for l= 2

** Using vlocal for PAOs with L= 2

SPLIT: Orbitals with angular momentum L= 2

SPLIT: Basis orbitals for state 3d

   izeta = 1
                 lambda =    1.000000
                     rc =    6.253707
                 energy =    0.017329
                kinetic =    1.197074
    potential(screened) =   -1.179745
       potential(ionic) =   -2.838380
atom: Total number of Sankey-type orbitals:  9

atm_pop: Valence configuration (for local Pseudopot. screening):
 2s( 2.00)
 2p( 2.00)
 3d( 0.00)
Vna: chval, zval:    4.00000   4.00000

Vna:  Cut-off radius for the neutral-atom potential:   6.740804
comcore: Pseudo-core radius Rcore=  1.682861

atom: _________________________________________________________________________

prinput: Basis input

PAO.BasisType split

%block ChemicalSpeciesLabel
    1    6 C                       # Species index, atomic number, species label
%endblock ChemicalSpeciesLabel

%block PAO.Basis                 # Define Basis set
# WARNING: This information might be incomplete!
C                     3   0.999            # Label, l-shells, ionic net charge
 n=2   0   1                         # n, l, Nzeta
   6.099
   1.000
 n=2   1   1                         # n, l, Nzeta
   6.741
   1.000
 n=3   2   1                         # n, l, Nzeta
   6.254
   1.000
%endblock PAO.Basis

prinput: ----------------------------------------------------------------------

Dumping basis to NetCDF file C.ion.nc
coor:   Atomic-coordinates input format  =     Cartesian coordinates
coor:                                          (in Angstroms)

ioxv: Reading coordinates and velocities from file
! Info in XV file prevails over previous structure input

siesta: Atomic coordinates (Bohr) and species
siesta:      2.68535   0.00316  34.52736  1        1
siesta:     10.73580   0.00659  34.52988  1        2
siesta:     18.78829   0.00632  34.55079  1        3
siesta:     26.84079   0.00250  34.55619  1        4
siesta:     34.89095  -0.00164  34.56432  1        5
siesta:     42.94199  -0.00532  34.53821  1        6
siesta:     50.99467  -0.00511  34.55980  1        7
siesta:     59.04582  -0.00174  34.54235  1        8
siesta:      6.70896   2.32792  34.52715  1        9
siesta:     14.76127   2.32990  34.55622  1       10
siesta:     22.81366   2.32919  34.55757  1       11
siesta:     30.86410   2.32390  34.56230  1       12
siesta:     38.91597   2.32070  34.54571  1       13
siesta:     46.96675   2.31921  34.54613  1       14
siesta:     55.01837   2.32056  34.53885  1       15
siesta:     63.07081   2.32479  34.52858  1       16
siesta:     10.73326   4.65422  34.54935  1       17
siesta:     18.78677   4.65279  34.56108  1       18
siesta:     26.83831   4.65138  34.56182  1       19
siesta:     34.89011   4.64711  34.56355  1       20
siesta:     42.94048   4.64352  34.53035  1       21
siesta:     50.99174   4.64397  34.55514  1       22
siesta:     59.04276   4.64801  34.51125  1       23
siesta:      6.70749   6.97686  34.54957  1       24
siesta:     14.75876   6.97717  34.56242  1       25
siesta:     22.81287   6.97628  34.57436  1       26
siesta:     30.86412   6.97401  34.55071  1       27
siesta:     38.91471   6.96984  34.54668  1       28
siesta:     46.96557   6.96917  34.55513  1       29
siesta:     55.01475   6.97017  34.52710  1       30
siesta:     63.06722   6.97538  34.52942  1       31
siesta:     10.73226   9.29994  34.56713  1       32
siesta:     18.78619   9.30214  34.56114  1       33
siesta:     26.83826   9.29903  34.56350  1       34
siesta:     34.88957   9.29561  34.54062  1       35
siesta:     42.94092   9.29444  34.53092  1       36
siesta:     50.98895   9.29360  34.55898  1       37
siesta:     59.04137   9.29652  34.51301  1       38
siesta:     67.09322   9.30015  34.55351  1       39
siesta:     14.75811  11.62617  34.55751  1       40
siesta:     22.81119  11.62502  34.56002  1       41
siesta:     30.86329  11.62123  34.54017  1       42
siesta:     38.91617  11.61903  34.53750  1       43
siesta:     46.96626  11.61847  34.55585  1       44
siesta:     55.01621  11.61964  34.53954  1       45
siesta:     63.06665  11.62237  34.52504  1       46
siesta:     10.73219  13.95001  34.56732  1       47
siesta:     18.78599  13.94976  34.55912  1       48
siesta:     26.83891  13.94723  34.55181  1       49
siesta:     34.88942  13.94629  34.53492  1       50
siesta:     42.94124  13.94405  34.55066  1       51
[...]
siesta: k-grid:     0     1     0      0.000
siesta: k-grid:     0     0     1      0.000

diag: Algorithm                                     = D&C
diag: Parallel over k                               =   F
diag: Use parallel 2D distribution                  =   T
diag: Parallel block-size                           = 64
diag: Parallel distribution                         =     8 x     8
diag: Used triangular part                          = Lower
diag: Absolute tolerance                            =  0.100E-15
diag: Orthogonalization factor                      =  0.100E-05

siesta: Constraint v=[  0.00000,  0.00000,  1.00000] (676): center-dir
  [ 1 -- 676 ]

ts: **************************************************************
ts: Save H and S matrices                           =    F
ts: Save DM and EDM matrices                        =    F
ts: Only save the overlap matrix S                  =    F
ts: **************************************************************

************************ Begin: TS CHECKS AND WARNINGS ************************
************************ End: TS CHECKS AND WARNINGS **************************

                        Begin CG opt. move =      0

outcell: Unit cell vectors (Ang):
       31.956337   -1.230000    0.000000
       17.043380   27.060000    0.000000
        0.000000    0.000000   40.000000

outcell: Cell vector modules (Ang)   :   31.980000   31.980000   40.000000
outcell: Cell angles (23,13,12) (deg):     90.0000     90.0000     60.0000
outcell: Cell volume (Ang**3)        :  35428.0739
<dSpData1D:S at geom step 0
  <sparsity:sparsity for geom step 0
    nrows_g=6084 nrows=128 sparsity=.0033 nnzs=122116, refcount: 7>
  <dData1D:(new from dSpData1D) n=122116, refcount: 1>
refcount: 1>
new_DM -- step:     1
Initializing Density Matrix...

Attempting to read DM from file... Succeeded...
DM from file:
<dSpData2D:IO-DM: Graphene.DM
  <sparsity:IO-DM: Graphene.DM
    nrows_g=6084 nrows=128 sparsity=.0033 nnzs=122116, refcount: 1>
  <dData2D:(new from dSpData2D) n=122116 m=1, refcount: 1>
refcount: 1>
DM to be used:
<dSpData2D:Re-structured SpM
  <sparsity:sparsity for geom step 0
    nrows_g=6084 nrows=128 sparsity=.0033 nnzs=122116, refcount: 8>
  <dData2D:(new in restruct) n=122116 m=1, refcount: 1>
refcount: 1>
No. of atoms with KB's overlaping orbs in proc 0. Max # of overlaps:     284     231

InitMesh: MESH = 300 x 300 x 432 = 38880000
InitMesh: Mesh cutoff (required, used) =   300.000   322.366 Ry
New grid distribution [1]: sub = 2
New grid distribution [2]: sub = 2
New grid distribution [3]: sub = 2
Setting up quadratic distribution...

stepf: Fermi-Dirac step function

siesta: Program's energy decomposition (eV):
siesta: Ebs     =    -35869.325648
siesta: Eions   =    190741.314426
siesta: Ena     =     42118.548680
siesta: Ekin    =     76837.003669
siesta: Enl     =     -3897.466775
siesta: Eso     =         0.000000
siesta: Edftu   =         0.000000
siesta: DEna    =      4425.483610
siesta: DUscf   =       224.494071
siesta: DUext   =         0.000000
siesta: Ex      =    -36059.342059
siesta: Ec      =     -3430.846057
siesta: Exc     =    -39490.188115
siesta: EbV     =         0.000000
siesta: eta*DQ  =         0.000000
siesta: Emadel  =         0.000000
siesta: Emeta   =         0.000000
siesta: Emolmec =         0.000000
siesta: Ekinion =         0.000000
siesta: Eharris =   -110523.359647
siesta: Etot    =   -110523.439286
siesta: FreeEng =   -110523.439286

SCF Convergence by DM+H criterion
max |DM_out - DM_in|         :     0.0000614114
max |H_out - H_in|      (eV) :     0.0008600374
SCF cycle converged after 6 iterations

Using DM_out to compute the final energy and forces
No. of atoms with KB's overlaping orbs in proc 0. Max # of overlaps:     284     231
System symmetry is of type slab but no DFTD3.Periodic list was found. Attempting to guess symmetry for D3.
Could not guess the right amount of periodicity directions for D3.
Enabling periodicity on all directions.

siesta: E_KS(eV) =          -110590.6213

siesta: E_KS - E_eggbox =   -110590.6213

siesta: Atomic forces (eV/Ang):
   Tot    0.001147   -0.001267    0.001603
   Max    0.133428
   Res    0.034677    sqrt( Sum f_i^2 / 3N )
   Max    0.133429    constrained

Stress tensor Voigt[x,y,z,yz,xz,xy] (kbar):      -25.91      -25.92       -4.68        0.00       -0.00        0.01
(Free)E + p*V (eV/cell)  -110174.0989
Target enthalpy (eV/cell)  -110590.6213

[...]

outcell: Cell vector modules (Ang)   :   31.980000   31.980000   40.000000
outcell: Cell angles (23,13,12) (deg):     90.0000     90.0000     60.0000
outcell: Cell volume (Ang**3)        :  35428.0739
<dSpData1D:S at geom step 1
  <sparsity:sparsity for geom step 1
    nrows_g=6084 nrows=128 sparsity=.0033 nnzs=123005, refcount: 7>
  <dData1D:(new from dSpData1D) n=123005, refcount: 1>
refcount: 1>
new_DM -- step:     2
Re-using DM from previous geometries...
Number of DMs in history: 1
 DM extrapolation coefficients:
1   1.00000
New DM after history re-use:
<dSpData2D:SpM extrapolated using coords
  <sparsity:sparsity for geom step 1
    nrows_g=6084 nrows=128 sparsity=.0033 nnzs=123005, refcount: 9>
  <dData2D:(temp array for extrapolation) n=123005 m=1, refcount: 1>
refcount: 1>
No. of atoms with KB's overlaping orbs in proc 0. Max # of overlaps:     286     238

[...]

        iscf     Eharris(eV)        E_KS(eV)     FreeEng(eV)     dDmax    Ef(eV) dHmax(eV)
   scf:    1  -110585.904958  -110587.555552  -110587.555552  0.016462 -3.954228  0.668097
   scf:    2  -110580.264315  -110585.566568  -110585.566568  0.050171 -3.948886  2.351070
   scf:    3  -110588.057983  -110587.914090  -110587.914090  0.040001 -3.953010  0.164106
   scf:    4  -110588.011409  -110587.979795  -110587.979795  0.006237 -3.952828  0.036535
   scf:    5  -110587.985627  -110587.983091  -110587.983091  0.000784 -3.952679  0.021861
   scf:    6  -110587.986269  -110587.984829  -110587.984829  0.000342 -3.952712  0.009016
   scf:    7  -110587.985531  -110587.985209  -110587.985209  0.000201 -3.952741  0.005538
   scf:    8  -110587.985353  -110587.985289  -110587.985289  0.000130 -3.952714  0.001767
   scf:    9  -110587.985317  -110587.985305  -110587.985305  0.000066 -3.952704  0.000612

[...]

cgvc: Finished line minimization    1.  Mean atomic displacement =    0.0013

[...]

Using DM_out to compute the final energy and forces
No. of atoms with KB's overlaping orbs in proc 0. Max # of overlaps:     279     229
System symmetry is of type slab but no DFTD3.Periodic list was found. Attempting to guess symmetry for D3.
Periodicity direction guess succeeded.

[...]

Using DM_out to compute the final energy and forces
No. of atoms with KB's overlaping orbs in proc 0. Max # of overlaps:     279     229
System symmetry is of type slab but no DFTD3.Periodic list was found. Attempting to guess symmetry for D3.
Periodicity direction guess succeeded.

[...]

cgvc: Finished line minimization   26.  Mean atomic displacement =    0.0007

[...]

                        Begin CG opt. move =     65

outcell: Unit cell vectors (Ang):
       31.956337   -1.230000    0.000000
       17.043380   27.060000    0.000000
        0.000000    0.000000   40.000000

outcell: Cell vector modules (Ang)   :   31.980000   31.980000   40.000000
outcell: Cell angles (23,13,12) (deg):     90.0000     90.0000     60.0000
outcell: Cell volume (Ang**3)        :  35428.0739
<dSpData1D:S at geom step 65
  <sparsity:sparsity for geom step 65
    nrows_g=6084 nrows=128 sparsity=.0033 nnzs=120900, refcount: 7>
  <dData1D:(new from dSpData1D) n=120900, refcount: 1>
refcount: 1>
new_DM -- step:    66
Re-using DM from previous geometries...
Number of DMs in history: 1
 DM extrapolation coefficients:
1   1.00000
New DM after history re-use:
<dSpData2D:SpM extrapolated using coords
  <sparsity:sparsity for geom step 65
    nrows_g=6084 nrows=128 sparsity=.0033 nnzs=120900, refcount: 9>
  <dData2D:(temp array for extrapolation) n=120900 m=1, refcount: 1>
refcount: 1>
No. of atoms with KB's overlaping orbs in proc 0. Max # of overlaps:     278     229

InitMesh: MESH = 300 x 300 x 432 = 38880000
InitMesh: Mesh cutoff (required, used) =   300.000   322.366 Ry
New grid distribution [1]: sub = 2
New grid distribution [2]: sub = 2
New grid distribution [3]: sub = 2
Setting up quadratic distribution...

        iscf     Eharris(eV)        E_KS(eV)     FreeEng(eV)     dDmax    Ef(eV) dHmax(eV)
   scf:    1  -110590.826471  -110590.828457  -110590.828457  0.000668 -3.954572  0.003315
   scf:    2  -110590.828111  -110590.828361  -110590.828361  0.000263 -3.954486  0.014221
   scf:    3  -110590.828482  -110590.828472  -110590.828472  0.000208 -3.954562  0.000938
   scf:    4  -110590.828476  -110590.828475  -110590.828475  0.000028 -3.954565  0.000214

SCF Convergence by DM+H criterion
max |DM_out - DM_in|         :     0.0000276626
max |H_out - H_in|      (eV) :     0.0002137944
SCF cycle converged after 4 iterations

Using DM_out to compute the final energy and forces
No. of atoms with KB's overlaping orbs in proc 0. Max # of overlaps:     278     229
System symmetry is of type slab but no DFTD3.Periodic list was found. Attempting to guess symmetry for D3.
Could not guess the right amount of periodicity directions for D3.
Enabling periodicity on all directions.

siesta: E_KS(eV) =          -110590.8297

siesta: Atomic forces (eV/Ang):
   Tot    0.000150    0.000621    0.002311
   Max    0.008340
   Res    0.002308    sqrt( Sum f_i^2 / 3N )
   Max    0.008340    constrained

Stress tensor Voigt[x,y,z,yz,xz,xy] (kbar):      -26.02      -26.02       -4.15       -0.00        0.00        0.01
(Free)E + p*V (eV/cell)  -110176.6653
Target enthalpy (eV/cell)  -110590.8297

outcoor: Relaxed atomic coordinates (Ang):
    1.42033834    0.00147890   18.17059240   1       1  C
    5.68134047    0.00477881   18.19684488   1       2  C
    9.94205612    0.00524721   18.24220796   1       3  C
   14.20272234    0.00227973   18.26633815   1       4  C
   18.46319296   -0.00225068   18.26383569   1       5  C
   22.72346680   -0.00487950   18.23141580   1       6  C
   26.98402759   -0.00384745   18.19619528   1       7  C
   31.24493451   -0.00047043   18.17282540   1       8  C
    3.54985529    1.23338813   18.18141440   1       9  C
    7.81099554    1.23543005   18.22332543   1      10  C
   12.07189659    1.23415681   18.25977624   1      11  C
   16.33251294    1.23005084   18.26929587   1      12  C
   20.59272262    1.22617395   18.25233109   1      13  C
   24.85291180    1.22527869   18.21685426   1      14  C
   29.11337661    1.22766577   18.18743107   1      15  C
   33.37445526    1.23157109   18.17725541   1      16  C
    5.67941357    2.46467189   18.20379702   1      17  C
    9.94080823    2.46506551   18.24956882   1      18  C
   14.20187876    2.46219007   18.26848797   1      19  C
   18.46238404    2.45804246   18.26712764   1      20  C
   22.72223281    2.45551681   18.24000584   1      21  C
   26.98221754    2.45631613   18.20756603   1      22  C
   31.24285734    2.45963938   18.18541784   1      23  C
    3.54780019    3.69324473   18.19189803   1      24  C
    7.80945491    3.69501942   18.23348406   1      25  C
   12.07104118    3.69373312   18.26598253   1      26  C
   16.33203449    3.69004252   18.27259341   1      27  C
   20.59194831    3.68658229   18.25896023   1      28  C
   24.85157544    3.68581602   18.22987180   1      29  C
   29.11159454    3.68798667   18.20291024   1      30  C
   33.37255174    3.69149016   18.19300252   1      31  C
    5.67796704    4.92424312   18.21714174   1      32  C
    9.94001260    4.92456801   18.25836118   1      33  C
   14.20156031    4.92203629   18.27438782   1      34  C
   18.46205719    4.91831275   18.27152533   1      35  C
   22.72152308    4.91616846   18.25055494   1      36  C
   26.98101060    4.91691031   18.22267834   1      37  C
   31.24132500    4.91982680   18.20506294   1      38  C
   35.50276834    4.92288463   18.20900485   1      39  C
    7.80867427    6.15440567   18.24445367   1      40  C
   12.07091070    6.15327594   18.27333145   1      41  C
   16.33221341    6.15027194   18.27746639   1      42  C
   20.59202990    6.14735408   18.26663939   1      43  C
   24.85118777    6.14668446   18.24241968   1      44  C
   29.11072529    6.14845618   18.22139836   1      45  C
   33.37146046    6.15134487   18.21418843   1      46  C
    5.67732011    7.38345008   18.23209149   1      47  C
    9.93995796    7.38360008   18.26564495   1      48  C
   14.20215546    7.38159288   18.27982252   1      49  C
   18.46271261    7.37879527   18.27549077   1      50  C
   22.72189410    7.37713263   18.26055065   1      51  C
   26.98080847    7.37769390   18.23837391   1      52  C
   31.24078306    7.37990831   18.22728023   1      53  C
   35.50230715    7.38215989   18.23092268   1      54  C
    7.80875981    8.61319210   18.25508717   1      55  C
   12.07161783    8.61231897   18.27832111   1      56  C
   16.33317282    8.61009738   18.28027882   1      57  C
   20.59296311    8.60805072   18.27261884   1      58  C
   24.85162022    8.60766524   18.25501215   1      59  C
   29.11086130    8.60890809   18.24165028   1      60  C
[...]
   17.65565224   25.77826800   21.82871337   1     662  C
   21.90402269   25.44731108   21.80673411   1     663  C
   26.15238747   25.11894396   21.76535557   1     664  C
   30.40086057   24.79403466   21.73667587   1     665  C
   34.64924615   24.47089756   21.72986944   1     666  C
   38.89702459   24.14638872   21.75205718   1     667  C
   43.14453486   23.81837866   21.79581866   1     668  C
   47.39230361   23.48770055   21.82133173   1     669  C
   19.87559039   26.83895877   21.82349846   1     670  C
   24.12371198   26.50903862   21.78858897   1     671  C
   28.37181612   26.18244130   21.74999126   1     672  C
   32.62006020   25.85892653   21.73153680   1     673  C
   36.86826900   25.53550860   21.73938505   1     674  C
   41.11609860   25.20932765   21.77920149   1     675  C
   45.36389998   24.87968552   21.81819964   1     676  C

siesta: Program's energy decomposition (eV):
siesta: Ebs     =    -35875.133696
siesta: Eions   =    190741.314426
siesta: Ena     =     42118.793994
siesta: Ekin    =     76830.445636
siesta: Enl     =     -3897.816343
siesta: Eso     =         0.000000
siesta: Edftu   =         0.000000
siesta: DEna    =      4426.988993
siesta: DUscf   =       225.038417
siesta: DUext   =         0.000000
siesta: Ex      =    -36057.744190
siesta: Ec      =     -3429.030329
siesta: Exc     =    -39486.774519
siesta: EbV     =         0.000000
siesta: eta*DQ  =         0.000000
siesta: Emadel  =         0.000000
siesta: Emeta   =         0.000000
siesta: Emolmec =         0.000000
siesta: Ekinion =         0.000000
siesta: Eharris =   -110590.828476
siesta: Etot    =   -110590.829699
siesta: FreeEng =   -110590.829699

siesta: Final energy (eV):
siesta:  Band Struct. =  -35875.133696
siesta:       Kinetic =   76830.445636
siesta:       Hartree = 1792462.479936
siesta:         Edftu =       0.000000
siesta:       Eso     =       0.000000
siesta:    Ext. field =       0.000000
siesta:         Exch. =  -36057.744190
siesta:         Corr. =   -3429.030329
siesta:     Bulk bias =       0.000000
siesta:   Exch.-corr. =  -39486.774519
siesta:  Ion-electron =-3654459.781900
siesta:       Ion-ion = 1714128.992599
siesta:       Ekinion =       0.000000
siesta: D3 dispersion =     -66.191450
siesta:         Total = -110590.829699
siesta:         Fermi =      -3.954565

siesta: Stress tensor (static) (eV/Ang**3):
siesta:    -0.016239    0.000004    0.000000
siesta:     0.000004   -0.016243   -0.000000
siesta:     0.000000   -0.000000   -0.002589

siesta: Cell volume =      35428.073894 Ang**3

siesta: Pressure (static):
siesta:                Solid            Molecule  Units
siesta:           0.00012732          0.00012729  Ry/Bohr**3
siesta:           0.01169029          0.01168680  eV/Ang**3
siesta:          18.72990685         18.72432125  kBar
(Free)E+ p_basis*V_orbitals  =     -110183.441023
(Free)Eharris+ p_basis*V_orbitals  =     -110183.439799

siesta: Electric dipole (a.u.)  =    0.000000   -0.000000   -0.000091
siesta: Electric dipole (Debye) =    0.000000   -0.000000   -0.000231

cite: Please see "Graphene.bib" for an exhaustive BiBTeX file.
cite: Please clearly indicate Siesta version in published work: 5.0.0-alpha-112-g6e4f53aee-dirty
cite: This calculation has made use of the following articles
cite: which are encouraged to be cited in a published work.
        Primary SIESTA paper
          DOI: www.doi.org/10.1088/0953-8984/14/11/302

>> End of run:   1-DEC-2024  17:11:53
Job completed