Runtime information:
* Directory : /n/holylabs/LABS/kaxiras_lab/axzhu/projects/AM207-final-project/N_5/PSO-2params
>> Start of run:  30-NOV-2024  20:17:59

reinit: Reading from standard input
reinit: Dumping input in INPUT_TMP.78262
************************** Dump of input data file ****************************
#	Basic Information	#
SystemName      Graphene
SystemLabel     Graphene
#	Structural Information		#
%include structure.fdf
#       DFT Parameters          #
SolutionMethod diagon           # Method of solving system. Can change to OrderN, transiesta, etc.
#Diag.Algorithm MRRR
#NumberOfEigenStates -20 # this will include first 10 conduction bands
XC.Functional   GGA
XC.Authors      PBE
DFTD3 true
Spin non-polarized
Mesh.Cutoff 300 Ry              # Cut off plane waves with kinetic energy higher than this.
MaxSCFIterations 300            # Max number of iterations in the SCF loop.
DM.UseSaveDM true
MinSCFIterations       3
SCF.DM.Tolerance       0.0001
SCF.Mixer.Weight       0.10
SCF.Mixer.History      12
SCF.Mix.First          true
#             Basis             #
#PAO.BasisSize   DZP
PAO.Basis < basis.fdf
#	k-points, Bands, DOS		#
%block kgrid_Monkhorst_Pack
   1  0  0  0.0
   0  1  0  0.0
   0  0  1  0.0
%endblock kgrid_Monkhorst_Pack
#BandLinesScale ReciprocalLatticeVectors
#%block BandLines
#1   0.6666666667  0.3333333333  0.0000000000  K
#10  0.0000000000  0.0000000000  0.0000000000  Gamma
#10  0.5000000000  0.0000000000  0.0000000000  M
#10  0.6666666667  0.3333333333  0.0000000000  K
#%endblock BandLines
# Local density of states (LDOS)
# %block LocalDensityOfStates
# EF 8.40 8.50 eV
# %endblock LocalDensityOfStates
#             Wavefunctions             #
#WaveFuncKPointsScale ReciprocalLatticeVectors
#%block WaveFuncKPoints
#0.666 0.333 0.000 from 4375 to 4378 # K wavefuncs 4375 to 4378
#0.000 0.000 0.000 from 4375 to 4378 # Gamma wavefuncs 4375 to 4378
#0.500 0.000 0.000 from 4375 to 4378 # M wavefuncs 4375 to 4378
#%endblock WaveFuncKPoints
#WriteDenchar T
#       Geometry Optimisation           #
MD.UseSaveXV true
MD.TypeOfRun           CG                  # Conjugate Gradient
MD.NumCGsteps          200                 # Max number of steps
MD.MaxForceTol         0.01    eV/Ang      # 10 meV/Ang
MD.VariableCell        false               # Don't relax cell
MD.MaxCGDispl          0.5 Bohr            # Maximum displacement of any atom
# Fix COM in Z direction only
%block Geometry.Constraints
 center all 0.0 0.0 1.0
%endblock Geometry.Constraints
************************** End of input data file *****************************

reinit: -----------------------------------------------------------------------
reinit: System Name: Graphene
reinit: -----------------------------------------------------------------------
reinit: System Label: Graphene
reinit: -----------------------------------------------------------------------

initatom: Reading input for the pseudopotentials and atomic orbitals ----------
Species number:   1 Atomic number:    6 Label: C

---- Processing specs for species: C
Ground state valence configuration:   2s02  2p02
Reading pseudopotential information in PSML from:
  C.psml
PSML file version: 1.1
GGA--PBE XC_GGA_X_PBE--XC_GGA_C_PBE pb
 Using ATOM defaults for log grid...
PSML uuid: 297821e0-be41-11e7-6802-e1ff7dfff095

---- Pseudopotential check for C

Pseudized shells:
2s( 2.00) rc: 1.20
2p( 2.00) rc: 1.26
Valence configuration for ps generation: 2s:2p: Total charge:   4.000000
For C, standard SIESTA heuristics set lmxkb to 3
 (one more than the basis l, including polarization orbitals).
Use PS.lmax or PS.KBprojectors blocks to override.
C pseudopotential only contains V_ls up to l=1 -- lmxkb reset.

<basis_specs>
C                    Z=   6    Mass=  12.011        Charge= 0.99941
Lmxo=2 Lmxkb= 1    BasisType=split      Semic=F
L=0  Nsemic=0  Cnfigmx=2
          i=1  nzeta=1  polorb=0  (2s)
            splnorm:   0.15000
               vcte:    132.57
               rinn:    4.5256
               qcoe:    0.0000
               qyuk:    0.0000
               qwid:   0.10000E-01
                rcs:    6.0009
            lambdas:    1.0000
L=1  Nsemic=0  Cnfigmx=2
          i=1  nzeta=1  polorb=0  (2p)
            splnorm:   0.15000
               vcte:    6.0639
               rinn:    6.0646
               qcoe:    0.0000
               qyuk:    0.0000
               qwid:   0.10000E-01
                rcs:    6.7108
            lambdas:    1.0000
L=2  Nsemic=0  Cnfigmx=3
          i=1  nzeta=1  polorb=0  (3d)
            splnorm:   0.15000
               vcte:    14.478
               rinn:    4.3208
               qcoe:    0.0000
               qyuk:    0.0000
               qwid:   0.10000E-01
                rcs:    6.2254
            lambdas:    1.0000
L=0  Nkbl=1  erefs: 0.17977+309
L=1  Nkbl=1  erefs: 0.17977+309
</basis_specs>

atom: Called for C                     (Z =   6)
NOTE: C pseudopotential has channels up to l= 1
NOTE: PAOs with higher l will be generated with V_local

read_vps: Pseudopotential generation method:
read_vps: ONCVPSP-3.Hamann's oncvpsp
Valence charge in pseudo generation:    4.00000

read_vps: Pseudopotential includes a core correction:
read_vps: Pseudo-core for xc-correction

xc_check: Exchange-correlation functional:
xc_check: GGA Perdew, Burke & Ernzerhof 1996
Got Vlocal (oncv-fit) from psml data
Choosing vlocal chloc cutoff:  4.139772
qtot up to nchloc:    3.99998844
atom: Maximum radius for chlocal:    4.13977
atom: Maximum radius for r*vlocal+2*Zval:    4.13977
Reading KB projs from C psml data
Using scalar-relativistic projectors in PSML file

PSML: Kleinman-Bylander projectors:
   l= 0   rc=  1.231096   Ekb= 12.963096
   l= 0   rc=  1.231096   Ekb=  0.771007
   l= 1   rc=  1.294237   Ekb= -8.399923
   l= 1   rc=  1.294237   Ekb= -1.755033

PSML: Total number of  Kleinman-Bylander projectors:   8
atom: -------------------------------------------------------------------------

atom: SANKEY-TYPE ORBITALS:

atom: basis set generated (by rescaling the valence charge)
atom: for a cation of charge   0.9994

SPLIT: Orbitals with angular momentum L= 0

SPLIT: Basis orbitals for state 2s

   izeta = 1
                 lambda =    1.000000
                     rc =    6.099293
                 energy =   -2.079355
                kinetic =    1.090115
    potential(screened) =   -3.169470
       potential(ionic) =   -5.727963

[...]

SPLIT: Basis orbitals for state 2p

   izeta = 1
                 lambda =    1.000000
                     rc =    6.740804
                 energy =   -1.441657
                kinetic =    3.222058
    potential(screened) =   -4.663715
       potential(ionic) =   -7.206130
*Note: V_local used for l= 2

** Using vlocal for PAOs with L= 2

SPLIT: Orbitals with angular momentum L= 2

SPLIT: Basis orbitals for state 3d

   izeta = 1
                 lambda =    1.000000
                     rc =    6.253707
                 energy =    0.017329
                kinetic =    1.197074
    potential(screened) =   -1.179745
       potential(ionic) =   -2.838380
atom: Total number of Sankey-type orbitals:  9

atm_pop: Valence configuration (for local Pseudopot. screening):
 2s( 2.00)
 2p( 2.00)
 3d( 0.00)
Vna: chval, zval:    4.00000   4.00000

Vna:  Cut-off radius for the neutral-atom potential:   6.740804
comcore: Pseudo-core radius Rcore=  1.682861

atom: _________________________________________________________________________

prinput: Basis input

PAO.BasisType split

%block ChemicalSpeciesLabel
    1    6 C                       # Species index, atomic number, species label
%endblock ChemicalSpeciesLabel

%block PAO.Basis                 # Define Basis set
# WARNING: This information might be incomplete!
C                     3   0.999            # Label, l-shells, ionic net charge
 n=2   0   1                         # n, l, Nzeta
   6.099
   1.000
 n=2   1   1                         # n, l, Nzeta
   6.741
   1.000
 n=3   2   1                         # n, l, Nzeta
   6.254
   1.000
%endblock PAO.Basis

prinput: ----------------------------------------------------------------------

Dumping basis to NetCDF file C.ion.nc
coor:   Atomic-coordinates input format  =     Cartesian coordinates
coor:                                          (in Angstroms)

siesta: WARNING: XV file not found

siesta: Atomic coordinates (Bohr) and species
siesta:      2.68394   0.00000  34.57379  1        1
siesta:     10.73577   0.00000  34.57379  1        2
siesta:     18.78760   0.00000  34.57379  1        3
siesta:     26.83943   0.00000  34.57379  1        4
siesta:     34.89126   0.00000  34.57379  1        5
siesta:      6.70986   2.32436  34.57379  1        6
siesta:     14.76169   2.32436  34.57379  1        7
siesta:     22.81352   2.32436  34.57379  1        8
siesta:     30.86535   2.32436  34.57379  1        9
siesta:     38.91718   2.32436  34.57379  1       10
siesta:     10.73577   4.64873  34.57379  1       11
siesta:     18.78760   4.64873  34.57379  1       12
siesta:     26.83943   4.64873  34.57379  1       13
siesta:     34.89126   4.64873  34.57379  1       14
siesta:      6.70986   6.97309  34.57379  1       15
siesta:     14.76169   6.97309  34.57379  1       16
siesta:     22.81352   6.97309  34.57379  1       17
siesta:     30.86535   6.97309  34.57379  1       18
siesta:     38.91718   6.97309  34.57379  1       19
siesta:     10.73577   9.29745  34.57379  1       20
siesta:     18.78760   9.29745  34.57379  1       21
siesta:     26.83943   9.29745  34.57379  1       22
siesta:     34.89126   9.29745  34.57379  1       23
siesta:     42.94309   9.29745  34.57379  1       24
siesta:     14.76169  11.62182  34.57379  1       25
siesta:     22.81352  11.62182  34.57379  1       26
siesta:     30.86535  11.62182  34.57379  1       27
siesta:     38.91718  11.62182  34.57379  1       28
siesta:     10.73577  13.94618  34.57379  1       29
siesta:     18.78760  13.94618  34.57379  1       30
siesta:     26.83943  13.94618  34.57379  1       31
siesta:     34.89126  13.94618  34.57379  1       32
siesta:     42.94309  13.94618  34.57379  1       33
siesta:     14.76169  16.27054  34.57379  1       34
siesta:     22.81352  16.27054  34.57379  1       35
siesta:     30.86535  16.27054  34.57379  1       36
siesta:     38.91718  16.27054  34.57379  1       37
siesta:     46.96901  16.27054  34.57379  1       38
siesta:     18.78760  18.59491  34.57379  1       39
siesta:     26.83943  18.59491  34.57379  1       40
siesta:     34.89126  18.59491  34.57379  1       41
siesta:     42.94309  18.59491  34.57379  1       42
siesta:     14.76169  20.91927  34.57379  1       43
siesta:     22.81352  20.91927  34.57379  1       44
siesta:     30.86535  20.91927  34.57379  1       45
siesta:     38.91718  20.91927  34.57379  1       46
siesta:     46.96901  20.91927  34.57379  1       47
siesta:     18.78760  23.24363  34.57379  1       48
siesta:     26.83943  23.24363  34.57379  1       49
siesta:     34.89126  23.24363  34.57379  1       50
siesta:     42.94309  23.24363  34.57379  1       51
siesta:     50.99492  23.24363  34.57379  1       52
siesta:     22.81352  25.56799  34.57379  1       53
[...]
  method pulay
  variant stable

  # Mixing options
  weight 0.1000
  weight.linear 0.1000
  history 12
%endblock SCF.Mixer.Pulay

DFT-D3: loading default parameters for functional PBE.
DM_history_depth set to one: no extrapolation allowed by default for geometry relaxation
Size of DM history Fstack: 1
Total number of electrons:   976.000000
Total ionic charge:   976.000000

* ProcessorY, Blocksize:    8  34

* Orbital distribution balance (max,min):    54    34

 Kpoints in:            1 . Kpoints trimmed:            1

siesta: k-grid: Number of k-points = 1
siesta: k-points from Monkhorst-Pack grid
siesta: k-cutoff (effective) =     9.607 Ang
siesta: k-point supercell and displacements
siesta: k-grid:     1     0     0      0.000
siesta: k-grid:     0     1     0      0.000
siesta: k-grid:     0     0     1      0.000

diag: Algorithm                                     = D&C
diag: Parallel over k                               =   F
diag: Use parallel 2D distribution                  =   T
diag: Parallel block-size                           = 34
diag: Parallel distribution                         =     8 x     8
diag: Used triangular part                          = Lower
diag: Absolute tolerance                            =  0.100E-15
diag: Orthogonalization factor                      =  0.100E-05

siesta: Constraint v=[  0.00000,  0.00000,  1.00000] (244): center-dir
  [ 1 -- 244 ]

ts: **************************************************************
ts: Save H and S matrices                           =    F
ts: Save DM and EDM matrices                        =    F
ts: Only save the overlap matrix S                  =    F
ts: **************************************************************

************************ Begin: TS CHECKS AND WARNINGS ************************
************************ End: TS CHECKS AND WARNINGS **************************

                        Begin CG opt. move =      0

outcell: Unit cell vectors (Ang):
       19.173802   -1.230000    0.000000
       10.652112   15.990000    0.000000
        0.000000    0.000000   40.000000

outcell: Cell vector modules (Ang)   :   19.213214   19.213214   40.000000
outcell: Cell angles (23,13,12) (deg):     90.0000     90.0000     60.0000
outcell: Cell volume (Ang**3)        :  12787.6480
<dSpData1D:S at geom step 0
  <sparsity:sparsity for geom step 0
    nrows_g=2196 nrows=54 sparsity=.0107 nnzs=51800, refcount: 7>
  <dData1D:(new from dSpData1D) n=51800, refcount: 1>
refcount: 1>
new_DM -- step:     1
Initializing Density Matrix...

Attempting to read DM from file... Failed...
DM filled with atomic data:
<dSpData2D:DM initialized from atoms
  <sparsity:sparsity for geom step 0
    nrows_g=2196 nrows=54 sparsity=.0107 nnzs=51800, refcount: 8>
  <dData2D:DM n=51800 m=1, refcount: 1>
refcount: 1>
No. of atoms with KB's overlaping orbs in proc 0. Max # of overlaps:     105     229

InitMesh: MESH = 180 x 180 x 432 = 13996800
InitMesh: Mesh cutoff (required, used) =   300.000   322.366 Ry
New grid distribution [1]: sub = 2
New grid distribution [2]: sub = 2
New grid distribution [3]: sub = 2
Setting up quadratic distribution...

stepf: Fermi-Dirac step function

siesta: Program's energy decomposition (eV):
siesta: Ebs     =    -14260.432731
siesta: Eions   =     68847.456686
siesta: Ena     =     15202.516429
siesta: Ekin    =     26888.523511
siesta: Enl     =     -1210.835307
siesta: Eso     =         0.000000
siesta: Edftu   =         0.000000
siesta: DEna    =      2064.144769
siesta: DUscf   =       132.101667
siesta: DUext   =         0.000000
siesta: Ex      =    -12862.582930
siesta: Ec      =     -1240.445078
siesta: Exc     =    -14103.028008
siesta: EbV     =         0.000000
siesta: eta*DQ  =         0.000000
siesta: Emadel  =         0.000000
siesta: Emeta   =         0.000000
siesta: Emolmec =         0.000000
siesta: Ekinion =         0.000000
siesta: Eharris =    -40839.763559
siesta: Etot    =    -39874.033624
siesta: FreeEng =    -39874.033624

SCF Convergence by DM+H criterion
max |DM_out - DM_in|         :     0.0000084415
max |H_out - H_in|      (eV) :     0.0003327653
SCF cycle converged after 10 iterations

Using DM_out to compute the final energy and forces
No. of atoms with KB's overlaping orbs in proc 0. Max # of overlaps:     105     229
System symmetry is of type slab but no DFTD3.Periodic list was found. Attempting to guess symmetry for D3.
Could not guess the right amount of periodicity directions for D3.
Enabling periodicity on all directions.

siesta: E_KS(eV) =           -39918.3947

siesta: E_KS - E_eggbox =    -39918.3947

siesta: Atomic forces (eV/Ang):
   Tot    0.000000    0.000000   -0.009952
   Max    0.030331
   Res    0.010708    sqrt( Sum f_i^2 / 3N )
   Max    0.030331    constrained

Stress tensor Voigt[x,y,z,yz,xz,xy] (kbar):      -25.54      -25.54       -4.90        0.00        0.00        0.00
(Free)E + p*V (eV/cell)   -39769.4650
Target enthalpy (eV/cell)   -39918.3947

[...]

outcell: Cell vector modules (Ang)   :   19.213214   19.213214   40.000000
outcell: Cell angles (23,13,12) (deg):     90.0000     90.0000     60.0000
outcell: Cell volume (Ang**3)        :  12787.6480
<dSpData1D:S at geom step 1
  <sparsity:sparsity for geom step 1
    nrows_g=2196 nrows=54 sparsity=.0107 nnzs=51806, refcount: 7>
  <dData1D:(new from dSpData1D) n=51806, refcount: 1>
refcount: 1>
new_DM -- step:     2
Re-using DM from previous geometries...
Number of DMs in history: 1
 DM extrapolation coefficients:
1   1.00000
New DM after history re-use:
<dSpData2D:SpM extrapolated using coords
  <sparsity:sparsity for geom step 1
    nrows_g=2196 nrows=54 sparsity=.0107 nnzs=51806, refcount: 9>
  <dData2D:(temp array for extrapolation) n=51806 m=1, refcount: 1>
refcount: 1>
No. of atoms with KB's overlaping orbs in proc 0. Max # of overlaps:     105     227

[...]

        iscf     Eharris(eV)        E_KS(eV)     FreeEng(eV)     dDmax    Ef(eV) dHmax(eV)
   scf:    1   -39917.860658   -39917.730491   -39917.730491  0.020337 -3.962886  0.380214
   scf:    2   -39915.216539   -39916.953686   -39916.953686  0.014709 -4.039139  2.035928
   scf:    3   -39917.879894   -39917.761227   -39917.761227  0.012394 -3.965572  0.029200
   scf:    4   -39917.766792   -39917.764238   -39917.764238  0.000440 -3.965346  0.014566
   scf:    5   -39917.765405   -39917.764887   -39917.764887  0.000290 -3.965837  0.006293
   scf:    6   -39917.764876   -39917.764910   -39917.764910  0.000109 -3.966414  0.012044
   scf:    7   -39917.764929   -39917.764935   -39917.764935  0.000091 -3.966273  0.002134
   scf:    8   -39917.764935   -39917.764937   -39917.764937  0.000021 -3.966317  0.001663
   scf:    9   -39917.764937   -39917.764937   -39917.764937  0.000015 -3.966268  0.000375

[...]

cgvc: Finished line minimization    1.  Mean atomic displacement =    0.0015

[...]

cgvc: Finished line minimization   10.  Mean atomic displacement =    0.0020

[...]

                        Begin CG opt. move =     30

outcell: Unit cell vectors (Ang):
       19.173802   -1.230000    0.000000
       10.652112   15.990000    0.000000
        0.000000    0.000000   40.000000

outcell: Cell vector modules (Ang)   :   19.213214   19.213214   40.000000
outcell: Cell angles (23,13,12) (deg):     90.0000     90.0000     60.0000
outcell: Cell volume (Ang**3)        :  12787.6480
<dSpData1D:S at geom step 30
  <sparsity:sparsity for geom step 30
    nrows_g=2196 nrows=54 sparsity=.0106 nnzs=51023, refcount: 7>
  <dData1D:(new from dSpData1D) n=51023, refcount: 1>
refcount: 1>
new_DM -- step:    31
Re-using DM from previous geometries...
Number of DMs in history: 1
 DM extrapolation coefficients:
1   1.00000
New DM after history re-use:
<dSpData2D:SpM extrapolated using coords
  <sparsity:sparsity for geom step 30
    nrows_g=2196 nrows=54 sparsity=.0106 nnzs=51023, refcount: 9>
  <dData2D:(temp array for extrapolation) n=51023 m=1, refcount: 1>
refcount: 1>
No. of atoms with KB's overlaping orbs in proc 0. Max # of overlaps:     103     227

InitMesh: MESH = 180 x 180 x 432 = 13996800
InitMesh: Mesh cutoff (required, used) =   300.000   322.366 Ry
New grid distribution [1]: sub = 2
New grid distribution [2]: sub = 2
New grid distribution [3]: sub = 2
Setting up quadratic distribution...

        iscf     Eharris(eV)        E_KS(eV)     FreeEng(eV)     dDmax    Ef(eV) dHmax(eV)
   scf:    1   -39918.484334   -39918.491141   -39918.491141  0.000855 -3.598911  0.062259
   scf:    2   -39918.434836   -39918.473957   -39918.473957  0.002561 -3.601915  0.309756
   scf:    3   -39918.494753   -39918.492025   -39918.492025  0.002128 -3.599249  0.005415
   scf:    4   -39918.492086   -39918.492068   -39918.492068  0.000177 -3.599254  0.001193
   scf:    5   -39918.492071   -39918.492070   -39918.492070  0.000016 -3.599243  0.000655

SCF Convergence by DM+H criterion
max |DM_out - DM_in|         :     0.0000160271
max |H_out - H_in|      (eV) :     0.0006549691
SCF cycle converged after 5 iterations

Using DM_out to compute the final energy and forces
No. of atoms with KB's overlaping orbs in proc 0. Max # of overlaps:     103     227
System symmetry is of type slab but no DFTD3.Periodic list was found. Attempting to guess symmetry for D3.
Could not guess the right amount of periodicity directions for D3.
Enabling periodicity on all directions.

siesta: E_KS(eV) =           -39918.4955

siesta: Atomic forces (eV/Ang):
   Tot    0.000000   -0.000000    0.005972
   Max    0.009004
   Res    0.002850    sqrt( Sum f_i^2 / 3N )
   Max    0.009004    constrained

Stress tensor Voigt[x,y,z,yz,xz,xy] (kbar):      -25.67      -25.67       -4.07       -0.00        0.00       -0.00
(Free)E + p*V (eV/cell)   -39771.0656
Target enthalpy (eV/cell)   -39918.4955

outcoor: Relaxed atomic coordinates (Ang):
    1.42042109    0.00108884   18.17065807   1       1  C
    5.68127383    0.00233091   18.22848290   1       2  C
    9.94187372   -0.00012823   18.26241688   1       3  C
   14.20205320   -0.00217136   18.21974390   1       4  C
   18.46265114   -0.00043766   18.17065786   1       5  C
    3.55031672    1.23225288   18.19833310   1       6  C
    7.81116057    1.23131098   18.25645061   1       7  C
   12.07167906    1.22862309   18.25304991   1       8  C
   16.33148421    1.22852288   18.19833146   1       9  C
   20.59254509    1.23116353   18.18520556   1      10  C
    5.68037902    2.46212996   18.23653494   1      11  C
    9.94134881    2.46003598   18.26868355   1      12  C
   14.20134787    2.45827156   18.23653298   1      13  C
   18.46133318    2.45981169   18.19837588   1      14  C
    3.54922125    3.69174344   18.21974485   1      15  C
    7.81100068    3.69104704   18.26494472   1      16  C
   12.07176379    3.68898544   18.26494468   1      17  C
   16.33115166    3.68894669   18.22848164   1      18  C
   20.59182621    3.69078147   18.21985083   1      19  C
    5.68030877    4.92130286   18.25305084   1      20  C
    9.94197859    4.91999343   18.27419743   1      21  C
   14.20187955    4.91899202   18.25645059   1      22  C
   18.46131622    4.91980530   18.23633782   1      23  C
   22.72312127    4.92062504   18.24754256   1      24  C
    7.81190937    6.15051598   18.26868368   1      25  C
   12.07267809    6.14942542   18.26868669   1      26  C
   16.33189457    6.14955952   18.25585898   1      27  C
   20.59240968    6.15006327   18.25388651   1      28  C
    5.68107941    7.38014379   18.26241642   1      29  C
    9.94316982    7.37994699   18.26494601   1      30  C
   14.20297978    7.37996496   18.26241805   1      31  C
   18.46237209    7.38014087   18.26397288   1      32  C
   22.72411276    7.37965828   18.26464648   1      33  C
    7.81289548    8.60967540   18.25645082   1      34  C
   12.07394754    8.61005137   18.25305195   1      35  C
   16.33315466    8.61050809   18.26464857   1      36  C
   20.59352814    8.60969666   18.27131393   1      37  C
   24.85598536    8.60903865   18.25585802   1      38  C
    9.94420701    9.83957592   18.23653410   1      39  C
   14.20406443    9.84088282   18.24754176   1      40  C
   18.46369431    9.84062815   18.27131430   1      41  C
   22.72503341    9.83879693   18.26397048   1      42  C
    7.81350935   11.06870078   18.22848380   1      43  C
   12.07465727   11.07040903   18.21974309   1      44  C
   16.33414691   11.07141340   18.25388565   1      45  C
   20.59462815   11.06965438   18.27131353   1      46  C
   24.85627406   11.06805000   18.23633943   1      47  C
    9.94413275   12.29920384   18.19833174   1      48  C
   14.20463889   12.30155876   18.21984973   1      49  C
   18.46444435   12.30104375   18.26397025   1      50  C
   22.72529349   12.29850218   18.25388602   1      51  C
   26.98668236   12.29806008   18.19837787   1      52  C
   12.07418612   13.53074428   18.18520455   1      53  C
   16.33425947   13.53212404   18.23633860   1      54  C
   20.59458156   13.52981428   18.26464606   1      55  C
   24.85538577   13.52763850   18.21985074   1      56  C
    9.94285835   14.75932860   18.17065836   1      57  C
   14.20383412   14.76210453   18.19837746   1      58  C
   18.46396950   14.76137974   18.25585769   1      59  C
   22.72466264   14.75847244   18.24754213   1      60  C
[...]
   19.33621308   11.15040874   21.74474111   1     230  C
   23.56202006   10.60775525   21.76149395   1     231  C
   13.15352105   13.18548177   21.81727967   1     232  C
   17.38001345   12.64144504   21.76149338   1     233  C
   21.60628998   12.09949511   21.75155408   1     234  C
   25.83123000   11.55574397   21.79540403   1     235  C
   11.19832392   14.67881278   21.84573519   1     236  C
   15.42442620   14.13264547   21.79540390   1     237  C
   19.65061691   13.59037847   21.75068110   1     238  C
   23.87630019   13.04832202   21.77888125   1     239  C
   28.10129452   12.50261158   21.83087466   1     240  C
   13.46938193   15.62514565   21.83087425   1     241  C
   17.69497245   15.08115357   21.76752633   1     242  C
   21.92110191   14.53961928   21.75927228   1     243  C
   26.14641568   13.99598816   21.81727824   1     244  C

siesta: Program's energy decomposition (eV):
siesta: Ebs     =    -12951.374625
siesta: Eions   =     68847.456686
siesta: Ena     =     15202.748688
siesta: Ekin    =     27729.561175
siesta: Enl     =     -1406.955966
siesta: Eso     =         0.000000
siesta: Edftu   =         0.000000
siesta: DEna    =      1598.155676
siesta: DUscf   =        81.288702
siesta: DUext   =         0.000000
siesta: Ex      =    -13014.648004
siesta: Ec      =     -1237.438694
siesta: Exc     =    -14252.086698
siesta: EbV     =         0.000000
siesta: eta*DQ  =         0.000000
siesta: Emadel  =         0.000000
siesta: Emeta   =         0.000000
siesta: Emolmec =         0.000000
siesta: Ekinion =         0.000000
siesta: Eharris =    -39918.492071
siesta: Etot    =    -39918.495520
siesta: FreeEng =    -39918.495520

siesta: Final energy (eV):
siesta:  Band Struct. =  -12951.374625
siesta:       Kinetic =   27729.561175
siesta:       Hartree =  645298.993659
siesta:         Edftu =       0.000000
siesta:       Eso     =       0.000000
siesta:    Ext. field =       0.000000
siesta:         Exch. =  -13014.648004
siesta:         Corr. =   -1237.438694
siesta:     Bulk bias =       0.000000
siesta:   Exch.-corr. =  -14252.086698
siesta:  Ion-electron =-1315697.370310
siesta:       Ion-ion =  617026.157066
siesta:       Ekinion =       0.000000
siesta: D3 dispersion =     -23.750412
siesta:         Total =  -39918.495520
siesta:         Fermi =      -3.599243

siesta: Stress tensor (static) (eV/Ang**3):
siesta:    -0.016025   -0.000002    0.000000
siesta:    -0.000002   -0.016023   -0.000000
siesta:     0.000000   -0.000000   -0.002540

siesta: Cell volume =      12787.647974 Ang**3

siesta: Pressure (static):
siesta:                Solid            Molecule  Units
siesta:           0.00012557          0.00012580  Ry/Bohr**3
siesta:           0.01152909          0.01155066  eV/Ang**3
siesta:          18.47163294         18.50619220  kBar
(Free)E+ p_basis*V_orbitals  =      -39771.449903
(Free)Eharris+ p_basis*V_orbitals  =      -39771.446454

siesta: Electric dipole (a.u.)  =    0.000000   -0.000000   -0.000080
siesta: Electric dipole (Debye) =    0.000000   -0.000000   -0.000204

cite: Please see "Graphene.bib" for an exhaustive BiBTeX file.
cite: Please clearly indicate Siesta version in published work: 5.0.0-alpha-112-g6e4f53aee-dirty
cite: This calculation has made use of the following articles
cite: which are encouraged to be cited in a published work.
        Primary SIESTA paper
          DOI: www.doi.org/10.1088/0953-8984/14/11/302

>> End of run:  30-NOV-2024  20:30:33
Job completed