Runtime information:
* Directory : /n/holylabs/LABS/kaxiras_lab/axzhu/projects/AM207-final-project/N_7/DFT-structures
>> Start of run:  30-NOV-2024  21:21:31

reinit: Reading from standard input
reinit: Dumping input in INPUT_TMP.19399
************************** Dump of input data file ****************************
#	Basic Information	#
SystemName      Graphene
SystemLabel     Graphene
#	Structural Information		#
%include structure.fdf
#       DFT Parameters          #
SolutionMethod diagon           # Method of solving system. Can change to OrderN, transiesta, etc.
#Diag.Algorithm MRRR
#NumberOfEigenStates -20 # this will include first 10 conduction bands
XC.Functional   GGA
XC.Authors      PBE
DFTD3 true
Spin non-polarized
Mesh.Cutoff 300 Ry              # Cut off plane waves with kinetic energy higher than this.
MaxSCFIterations 300            # Max number of iterations in the SCF loop.
DM.UseSaveDM true
MinSCFIterations       3
SCF.DM.Tolerance       0.0001
SCF.Mixer.Weight       0.10
SCF.Mixer.History      12
SCF.Mix.First          true
#             Basis             #
#PAO.BasisSize   DZP
PAO.Basis < basis.fdf
#	k-points, Bands, DOS		#
%block kgrid_Monkhorst_Pack
   1  0  0  0.0
   0  1  0  0.0
   0  0  1  0.0
%endblock kgrid_Monkhorst_Pack
#BandLinesScale ReciprocalLatticeVectors
#%block BandLines
#1   0.6666666667  0.3333333333  0.0000000000  K
#10  0.0000000000  0.0000000000  0.0000000000  Gamma
#10  0.5000000000  0.0000000000  0.0000000000  M
#10  0.6666666667  0.3333333333  0.0000000000  K
#%endblock BandLines
# Local density of states (LDOS)
# %block LocalDensityOfStates
# EF 8.40 8.50 eV
# %endblock LocalDensityOfStates
#             Wavefunctions             #
#WaveFuncKPointsScale ReciprocalLatticeVectors
#%block WaveFuncKPoints
#0.666 0.333 0.000 from 4375 to 4378 # K wavefuncs 4375 to 4378
#0.000 0.000 0.000 from 4375 to 4378 # Gamma wavefuncs 4375 to 4378
#0.500 0.000 0.000 from 4375 to 4378 # M wavefuncs 4375 to 4378
#%endblock WaveFuncKPoints
#WriteDenchar T
#       Geometry Optimisation           #
MD.UseSaveXV true
MD.TypeOfRun           CG                  # Conjugate Gradient
MD.NumCGsteps          200                 # Max number of steps
MD.MaxForceTol         0.01    eV/Ang      # 10 meV/Ang
MD.VariableCell        false               # Don't relax cell
MD.MaxCGDispl          0.5 Bohr            # Maximum displacement of any atom
# Fix COM in Z direction only
%block Geometry.Constraints
 center all 0.0 0.0 1.0
%endblock Geometry.Constraints
************************** End of input data file *****************************

reinit: -----------------------------------------------------------------------
reinit: System Name: Graphene
reinit: -----------------------------------------------------------------------
reinit: System Label: Graphene
reinit: -----------------------------------------------------------------------

initatom: Reading input for the pseudopotentials and atomic orbitals ----------
Species number:   1 Atomic number:    6 Label: C

---- Processing specs for species: C
Ground state valence configuration:   2s02  2p02
Reading pseudopotential information in PSML from:
  C.psml
PSML file version: 1.1
GGA--PBE XC_GGA_X_PBE--XC_GGA_C_PBE pb
 Using ATOM defaults for log grid...
PSML uuid: 297821e0-be41-11e7-6802-e1ff7dfff095

---- Pseudopotential check for C

Pseudized shells:
2s( 2.00) rc: 1.20
2p( 2.00) rc: 1.26
Valence configuration for ps generation: 2s:2p: Total charge:   4.000000
For C, standard SIESTA heuristics set lmxkb to 3
 (one more than the basis l, including polarization orbitals).
Use PS.lmax or PS.KBprojectors blocks to override.
C pseudopotential only contains V_ls up to l=1 -- lmxkb reset.

<basis_specs>
C                    Z=   6    Mass=  12.011        Charge= 0.99941
Lmxo=2 Lmxkb= 1    BasisType=split      Semic=F
L=0  Nsemic=0  Cnfigmx=2
          i=1  nzeta=1  polorb=0  (2s)
            splnorm:   0.15000
               vcte:    132.57
               rinn:    4.5256
               qcoe:    0.0000
               qyuk:    0.0000
               qwid:   0.10000E-01
                rcs:    6.0009
            lambdas:    1.0000
L=1  Nsemic=0  Cnfigmx=2
          i=1  nzeta=1  polorb=0  (2p)
            splnorm:   0.15000
               vcte:    6.0639
               rinn:    6.0646
               qcoe:    0.0000
               qyuk:    0.0000
               qwid:   0.10000E-01
                rcs:    6.7108
            lambdas:    1.0000
L=2  Nsemic=0  Cnfigmx=3
          i=1  nzeta=1  polorb=0  (3d)
            splnorm:   0.15000
               vcte:    14.478
               rinn:    4.3208
               qcoe:    0.0000
               qyuk:    0.0000
               qwid:   0.10000E-01
                rcs:    6.2254
            lambdas:    1.0000
L=0  Nkbl=1  erefs: 0.17977+309
L=1  Nkbl=1  erefs: 0.17977+309
</basis_specs>

atom: Called for C                     (Z =   6)
NOTE: C pseudopotential has channels up to l= 1
NOTE: PAOs with higher l will be generated with V_local

read_vps: Pseudopotential generation method:
read_vps: ONCVPSP-3.Hamann's oncvpsp
Valence charge in pseudo generation:    4.00000

read_vps: Pseudopotential includes a core correction:
read_vps: Pseudo-core for xc-correction

xc_check: Exchange-correlation functional:
xc_check: GGA Perdew, Burke & Ernzerhof 1996
Got Vlocal (oncv-fit) from psml data
Choosing vlocal chloc cutoff:  4.139772
qtot up to nchloc:    3.99998844
atom: Maximum radius for chlocal:    4.13977
atom: Maximum radius for r*vlocal+2*Zval:    4.13977
Reading KB projs from C psml data
Using scalar-relativistic projectors in PSML file

PSML: Kleinman-Bylander projectors:
   l= 0   rc=  1.231096   Ekb= 12.963096
   l= 0   rc=  1.231096   Ekb=  0.771007
   l= 1   rc=  1.294237   Ekb= -8.399923
   l= 1   rc=  1.294237   Ekb= -1.755033

PSML: Total number of  Kleinman-Bylander projectors:   8
atom: -------------------------------------------------------------------------

atom: SANKEY-TYPE ORBITALS:

atom: basis set generated (by rescaling the valence charge)
atom: for a cation of charge   0.9994

SPLIT: Orbitals with angular momentum L= 0

SPLIT: Basis orbitals for state 2s

   izeta = 1
                 lambda =    1.000000
                     rc =    6.099293
                 energy =   -2.079355
                kinetic =    1.090115
    potential(screened) =   -3.169470
       potential(ionic) =   -5.727963

[...]

SPLIT: Basis orbitals for state 2p

   izeta = 1
                 lambda =    1.000000
                     rc =    6.740804
                 energy =   -1.441657
                kinetic =    3.222058
    potential(screened) =   -4.663715
       potential(ionic) =   -7.206130
*Note: V_local used for l= 2

** Using vlocal for PAOs with L= 2

SPLIT: Orbitals with angular momentum L= 2

SPLIT: Basis orbitals for state 3d

   izeta = 1
                 lambda =    1.000000
                     rc =    6.253707
                 energy =    0.017329
                kinetic =    1.197074
    potential(screened) =   -1.179745
       potential(ionic) =   -2.838380
atom: Total number of Sankey-type orbitals:  9

atm_pop: Valence configuration (for local Pseudopot. screening):
 2s( 2.00)
 2p( 2.00)
 3d( 0.00)
Vna: chval, zval:    4.00000   4.00000

Vna:  Cut-off radius for the neutral-atom potential:   6.740804
comcore: Pseudo-core radius Rcore=  1.682861

atom: _________________________________________________________________________

prinput: Basis input

PAO.BasisType split

%block ChemicalSpeciesLabel
    1    6 C                       # Species index, atomic number, species label
%endblock ChemicalSpeciesLabel

%block PAO.Basis                 # Define Basis set
# WARNING: This information might be incomplete!
C                     3   0.999            # Label, l-shells, ionic net charge
 n=2   0   1                         # n, l, Nzeta
   6.099
   1.000
 n=2   1   1                         # n, l, Nzeta
   6.741
   1.000
 n=3   2   1                         # n, l, Nzeta
   6.254
   1.000
%endblock PAO.Basis

prinput: ----------------------------------------------------------------------

Dumping basis to NetCDF file C.ion.nc
coor:   Atomic-coordinates input format  =     Cartesian coordinates
coor:                                          (in Angstroms)

siesta: WARNING: XV file not found

siesta: Atomic coordinates (Bohr) and species
siesta:      2.68394   0.00000  34.62923  1        1
siesta:     10.73577   0.00000  34.62923  1        2
siesta:     18.78760   0.00000  34.62923  1        3
siesta:     26.83943   0.00000  34.62923  1        4
siesta:     34.89126   0.00000  34.62923  1        5
siesta:     42.94309   0.00000  34.62923  1        6
siesta:     50.99492   0.00000  34.62923  1        7
siesta:      6.70986   2.32436  34.62923  1        8
siesta:     14.76169   2.32436  34.62923  1        9
siesta:     22.81352   2.32436  34.62923  1       10
siesta:     30.86535   2.32436  34.62923  1       11
siesta:     38.91718   2.32436  34.62923  1       12
siesta:     46.96901   2.32436  34.62923  1       13
siesta:     55.02084   2.32436  34.62923  1       14
siesta:     10.73577   4.64873  34.62923  1       15
siesta:     18.78760   4.64873  34.62923  1       16
siesta:     26.83943   4.64873  34.62923  1       17
siesta:     34.89126   4.64873  34.62923  1       18
siesta:     42.94309   4.64873  34.62923  1       19
siesta:     50.99492   4.64873  34.62923  1       20
siesta:      6.70986   6.97309  34.62923  1       21
siesta:     14.76169   6.97309  34.62923  1       22
siesta:     22.81352   6.97309  34.62923  1       23
siesta:     30.86535   6.97309  34.62923  1       24
siesta:     38.91718   6.97309  34.62923  1       25
siesta:     46.96901   6.97309  34.62923  1       26
siesta:     55.02084   6.97309  34.62923  1       27
siesta:     10.73577   9.29745  34.62923  1       28
siesta:     18.78760   9.29745  34.62923  1       29
siesta:     26.83943   9.29745  34.62923  1       30
siesta:     34.89126   9.29745  34.62923  1       31
siesta:     42.94309   9.29745  34.62923  1       32
siesta:     50.99492   9.29745  34.62923  1       33
siesta:     59.04675   9.29745  34.62923  1       34
siesta:     14.76169  11.62182  34.62923  1       35
siesta:     22.81352  11.62182  34.62923  1       36
siesta:     30.86535  11.62182  34.62923  1       37
siesta:     38.91718  11.62182  34.62923  1       38
siesta:     46.96901  11.62182  34.62923  1       39
siesta:     55.02084  11.62182  34.62923  1       40
siesta:     10.73577  13.94618  34.62923  1       41
siesta:     18.78760  13.94618  34.62923  1       42
siesta:     26.83943  13.94618  34.62923  1       43
siesta:     34.89126  13.94618  34.62923  1       44
siesta:     42.94309  13.94618  34.62923  1       45
siesta:     50.99492  13.94618  34.62923  1       46
siesta:     59.04675  13.94618  34.62923  1       47
siesta:     14.76169  16.27054  34.62923  1       48
siesta:     22.81352  16.27054  34.62923  1       49
siesta:     30.86535  16.27054  34.62923  1       50
siesta:     38.91718  16.27054  34.62923  1       51
siesta:     46.96901  16.27054  34.62923  1       52
siesta:     55.02084  16.27054  34.62923  1       53
[...]
mix.SCF:    Mixing weight                        =     0.100000
mix.SCF:    SVD condition                        = 0.1000E-07
redata: Save all siesta data in one NC              =   F
redata: ***********************************************************************

%block SCF.Mixers
  Pulay
%endblock SCF.Mixers

%block SCF.Mixer.Pulay
  # Mixing method
  method pulay
  variant stable

  # Mixing options
  weight 0.1000
  weight.linear 0.1000
  history 12
%endblock SCF.Mixer.Pulay

DFT-D3: loading default parameters for functional PBE.
DM_history_depth set to one: no extrapolation allowed by default for geometry relaxation
Size of DM history Fstack: 1
Total number of electrons:  2032.000000
Total ionic charge:  2032.000000

* ProcessorY, Blocksize:    8  64

* Orbital distribution balance (max,min):   128    64

 Kpoints in:            1 . Kpoints trimmed:            1

siesta: k-grid: Number of k-points = 1
siesta: k-points from Monkhorst-Pack grid
siesta: k-cutoff (effective) =    13.861 Ang
siesta: k-point supercell and displacements
siesta: k-grid:     1     0     0      0.000
siesta: k-grid:     0     1     0      0.000
siesta: k-grid:     0     0     1      0.000

diag: Algorithm                                     = D&C
diag: Parallel over k                               =   F
diag: Use parallel 2D distribution                  =   T
diag: Parallel block-size                           = 64
diag: Parallel distribution                         =     8 x     8
diag: Used triangular part                          = Lower
diag: Absolute tolerance                            =  0.100E-15
diag: Orthogonalization factor                      =  0.100E-05

siesta: Constraint v=[  0.00000,  0.00000,  1.00000] (508): center-dir
  [ 1 -- 508 ]

ts: **************************************************************
ts: Save H and S matrices                           =    F
ts: Save DM and EDM matrices                        =    F
ts: Only save the overlap matrix S                  =    F
ts: **************************************************************

************************ Begin: TS CHECKS AND WARNINGS ************************
************************ End: TS CHECKS AND WARNINGS **************************

                        Begin CG opt. move =      0

outcell: Unit cell vectors (Ang):
       27.695492   -1.230000    0.000000
       14.912957   23.370000    0.000000
        0.000000    0.000000   40.000000

outcell: Cell vector modules (Ang)   :   27.722792   27.722792   40.000000
outcell: Cell angles (23,13,12) (deg):     90.0000     90.0000     60.0000
outcell: Cell volume (Ang**3)        :  26623.4638
<dSpData1D:S at geom step 0
  <sparsity:sparsity for geom step 0
    nrows_g=4572 nrows=128 sparsity=.0059 nnzs=123818, refcount: 7>
  <dData1D:(new from dSpData1D) n=123818, refcount: 1>
refcount: 1>
new_DM -- step:     1
Initializing Density Matrix...

Attempting to read DM from file... Failed...
DM filled with atomic data:
<dSpData2D:DM initialized from atoms
  <sparsity:sparsity for geom step 0
    nrows_g=4572 nrows=128 sparsity=.0059 nnzs=123818, refcount: 8>
  <dData2D:DM n=123818 m=1, refcount: 1>
refcount: 1>
No. of atoms with KB's overlaping orbs in proc 0. Max # of overlaps:     269     237

InitMesh: MESH = 256 x 256 x 432 = 28311552
InitMesh: Mesh cutoff (required, used) =   300.000   314.229 Ry
New grid distribution [1]: sub = 2
New grid distribution [2]: sub = 2
New grid distribution [3]: sub = 2
Setting up quadratic distribution...

stepf: Fermi-Dirac step function

siesta: Program's energy decomposition (eV):
siesta: Ebs     =    -29747.142366
siesta: Eions   =    143338.147527
siesta: Ena     =     31650.969748
siesta: Ekin    =     56002.548616
siesta: Enl     =     -2523.327560
siesta: Eso     =         0.000000
siesta: Edftu   =         0.000000
siesta: DEna    =      4288.862948
siesta: DUscf   =       273.422635
siesta: DUext   =         0.000000
siesta: Ex      =    -26783.719062
siesta: Ec      =     -2584.431050
siesta: Exc     =    -29368.150112
siesta: EbV     =         0.000000
siesta: eta*DQ  =         0.000000
siesta: Emadel  =         0.000000
siesta: Emeta   =         0.000000
siesta: Emolmec =         0.000000
siesta: Ekinion =         0.000000
siesta: Eharris =    -85022.732252
siesta: Etot    =    -83013.821252
siesta: FreeEng =    -83013.821252

SCF Convergence by DM+H criterion
max |DM_out - DM_in|         :     0.0000810775
max |H_out - H_in|      (eV) :     0.0008079912
SCF cycle converged after 10 iterations

Using DM_out to compute the final energy and forces
No. of atoms with KB's overlaping orbs in proc 0. Max # of overlaps:     269     237
System symmetry is of type slab but no DFTD3.Periodic list was found. Attempting to guess symmetry for D3.
Could not guess the right amount of periodicity directions for D3.
Enabling periodicity on all directions.

siesta: E_KS(eV) =           -83106.4421

siesta: E_KS - E_eggbox =    -83106.4421

siesta: Atomic forces (eV/Ang):
   Tot   -0.000000    0.000000   -0.000000
   Max    0.049882
   Res    0.016791    sqrt( Sum f_i^2 / 3N )
   Max    0.049882    constrained

Stress tensor Voigt[x,y,z,yz,xz,xy] (kbar):      -25.70      -25.71       -5.44       -0.00       -0.00        0.00
(Free)E + p*V (eV/cell)   -82791.5585
Target enthalpy (eV/cell)   -83106.4421

[...]

outcell: Cell vector modules (Ang)   :   27.722792   27.722792   40.000000
outcell: Cell angles (23,13,12) (deg):     90.0000     90.0000     60.0000
outcell: Cell volume (Ang**3)        :  26623.4638
<dSpData1D:S at geom step 1
  <sparsity:sparsity for geom step 1
    nrows_g=4572 nrows=128 sparsity=.0059 nnzs=123560, refcount: 7>
  <dData1D:(new from dSpData1D) n=123560, refcount: 1>
refcount: 1>
new_DM -- step:     2
Re-using DM from previous geometries...
Number of DMs in history: 1
 DM extrapolation coefficients:
1   1.00000
New DM after history re-use:
<dSpData2D:SpM extrapolated using coords
  <sparsity:sparsity for geom step 1
    nrows_g=4572 nrows=128 sparsity=.0059 nnzs=123560, refcount: 9>
  <dData2D:(temp array for extrapolation) n=123560 m=1, refcount: 1>
refcount: 1>
No. of atoms with KB's overlaping orbs in proc 0. Max # of overlaps:     267     234

[...]

        iscf     Eharris(eV)        E_KS(eV)     FreeEng(eV)     dDmax    Ef(eV) dHmax(eV)
   scf:    1   -83107.357002   -83106.598047   -83106.598047  0.005972 -3.943512  0.121642
   scf:    2   -83105.892201   -83106.377507   -83106.377507  0.003352 -3.937236  0.823258
   scf:    3   -83106.634098   -83106.604713   -83106.604713  0.002848 -3.944341  0.010735
   scf:    4   -83106.605632   -83106.605195   -83106.605195  0.000090 -3.944264  0.007646
   scf:    5   -83106.605871   -83106.605559   -83106.605559  0.000135 -3.944463  0.002693
   scf:    6   -83106.605654   -83106.605613   -83106.605613  0.000072 -3.944918  0.000627

[...]

cgvc: Finished line minimization    1.  Mean atomic displacement =    0.0089

[...]

cgvc: Finished line minimization   15.  Mean atomic displacement =    0.0007

                        Begin CG opt. move =     39

outcell: Unit cell vectors (Ang):
       27.695492   -1.230000    0.000000
       14.912957   23.370000    0.000000
        0.000000    0.000000   40.000000

outcell: Cell vector modules (Ang)   :   27.722792   27.722792   40.000000
outcell: Cell angles (23,13,12) (deg):     90.0000     90.0000     60.0000
outcell: Cell volume (Ang**3)        :  26623.4638
<dSpData1D:S at geom step 39
  <sparsity:sparsity for geom step 39
    nrows_g=4572 nrows=128 sparsity=.0058 nnzs=120614, refcount: 7>
  <dData1D:(new from dSpData1D) n=120614, refcount: 1>
refcount: 1>
new_DM -- step:    40
Re-using DM from previous geometries...
Number of DMs in history: 1
 DM extrapolation coefficients:
1   1.00000
New DM after history re-use:
<dSpData2D:SpM extrapolated using coords
  <sparsity:sparsity for geom step 39
    nrows_g=4572 nrows=128 sparsity=.0058 nnzs=120614, refcount: 9>
  <dData2D:(temp array for extrapolation) n=120614 m=1, refcount: 1>
refcount: 1>
No. of atoms with KB's overlaping orbs in proc 0. Max # of overlaps:     251     227

InitMesh: MESH = 256 x 256 x 432 = 28311552
InitMesh: Mesh cutoff (required, used) =   300.000   314.229 Ry
New grid distribution [1]: sub = 2
New grid distribution [2]: sub = 2
New grid distribution [3]: sub = 2
Setting up quadratic distribution...

        iscf     Eharris(eV)        E_KS(eV)     FreeEng(eV)     dDmax    Ef(eV) dHmax(eV)
   scf:    1   -83106.948594   -83106.951059   -83106.951059  0.000673 -3.951820  0.009403
   scf:    2   -83106.949082   -83106.950471   -83106.950471  0.000371 -3.951626  0.049025
   scf:    3   -83106.951201   -83106.951106   -83106.951106  0.000294 -3.951790  0.001100
   scf:    4   -83106.951110   -83106.951108   -83106.951108  0.000027 -3.951793  0.000273

SCF Convergence by DM+H criterion
max |DM_out - DM_in|         :     0.0000273558
max |H_out - H_in|      (eV) :     0.0002727285
SCF cycle converged after 4 iterations

Using DM_out to compute the final energy and forces
No. of atoms with KB's overlaping orbs in proc 0. Max # of overlaps:     251     227
System symmetry is of type slab but no DFTD3.Periodic list was found. Attempting to guess symmetry for D3.
Could not guess the right amount of periodicity directions for D3.
Enabling periodicity on all directions.

siesta: E_KS(eV) =           -83106.9523

siesta: Atomic forces (eV/Ang):
   Tot    0.000004   -0.000000    0.000000
   Max    0.008226
   Res    0.003424    sqrt( Sum f_i^2 / 3N )
   Max    0.008226    constrained

Stress tensor Voigt[x,y,z,yz,xz,xy] (kbar):      -26.00      -26.00       -3.92       -0.00       -0.00        0.00
(Free)E + p*V (eV/cell)   -82797.1650
Target enthalpy (eV/cell)   -83106.9523

outcoor: Relaxed atomic coordinates (Ang):
    1.42033257    0.00158170   18.12347693   1       1  C
    5.68144460    0.00472941   18.17107535   1       2  C
    9.94199879    0.00379924   18.23337671   1       3  C
   14.20257488   -0.00020158   18.25741979   1       4  C
   18.46296105   -0.00380726   18.22564782   1       5  C
   22.72311275   -0.00419229   18.16275483   1       6  C
   26.98395644   -0.00075757   18.12347688   1       7  C
    3.54981608    1.23361316   18.14414889   1       8  C
    7.81092718    1.23469048   18.20595205   1       9  C
   12.07184386    1.23196860   18.25383842   1      10  C
   16.33226226    1.22792584   18.25044035   1      11  C
   20.59224890    1.22574876   18.19992850   1      12  C
   24.85224288    1.22741461   18.14414933   1      13  C
   29.11326478    1.23159471   18.13431427   1      14  C
    5.67965172    2.46456486   18.17906541   1      15  C
    9.94095015    2.46365514   18.23806941   1      16  C
   14.20177987    2.45984540   18.26260049   1      17  C
   18.46191015    2.45670045   18.23490770   1      18  C
   22.72129038    2.45643180   18.17906585   1      19  C
   26.98161666    2.45948070   18.14448392   1      20  C
    3.54777827    3.69329965   18.16275456   1      21  C
    7.80976157    3.69418938   18.21763300   1      22  C
   12.07133492    3.69190022   18.26084308   1      23  C
   16.33185844    3.68825120   18.25939426   1      24  C
   20.59135053    3.68634915   18.21763288   1      25  C
   24.85067515    3.68790179   18.17107615   1      26  C
   29.11162709    3.69153482   18.16275103   1      27  C
    5.67837022    4.92370931   18.19992913   1      28  C
    9.94051227    4.92289512   18.24926864   1      29  C
   14.20185292    4.92002415   18.27035970   1      30  C
   18.46188428    4.91728142   18.24926940   1      31  C
   22.72075602    4.91710775   18.20595305   1      32  C
   26.98061410    4.91963952   18.17926484   1      33  C
   31.24230597    4.92240668   18.19315353   1      34  C
    7.80957246    6.15316251   18.23490885   1      35  C
   12.07170132    6.15147750   18.26871965   1      36  C
   16.33230599    6.14865393   18.26872038   1      37  C
   20.59142848    6.14728126   18.23806976   1      38  C
   24.85045739    6.14840821   18.20582149   1      39  C
   29.11117668    6.15098252   18.20022452   1      40  C
    5.67818705    7.38250637   18.22564858   1      41  C
    9.94115401    7.38206621   18.25939362   1      42  C
   14.20282011    7.37999627   18.27470940   1      43  C
   18.46254681    7.37812449   18.26084338   1      44  C
   22.72120519    7.37811503   18.23337754   1      45  C
   26.98083887    7.37972562   18.21740314   1      46  C
   31.24250498    7.38135732   18.22592584   1      47  C
    7.81024800    8.61187951   18.25044094   1      48  C
   12.07290286    8.61081945   18.27035865   1      49  C
   16.33370153    8.60914633   18.27035945   1      50  C
   20.59265778    8.60853147   18.25383876   1      51  C
   24.85134272    8.60920210   18.23777141   1      52  C
   29.11189347    8.61020733   18.23554713   1      53  C
   33.37462861    8.61099870   18.24745455   1      54  C
    9.94236349    9.84097256   18.26259898   1      55  C
   14.20444938    9.83985753   18.26872010   1      56  C
   18.46431474    9.83917038   18.26260137   1      57  C
   22.72252912    9.83936111   18.25262221   1      58  C
   26.98206854    9.83993204   18.24905228   1      59  C
   31.24373176    9.84029321   18.25191700   1      60  C
[...]
   34.49888581   19.16122069   21.78259663   1     494  C
   38.74146674   18.78240966   21.83724890   1     495  C
   15.50984330   22.08118351   21.87652311   1     496  C
   19.75420744   21.69989757   21.83724898   1     497  C
   23.99839389   21.32265565   21.77407416   1     498  C
   28.24280216   20.94874556   21.74091217   1     499  C
   32.48675164   20.57461864   21.76222889   1     500  C
   36.72993982   20.19776273   21.82073589   1     501  C
   40.97317272   19.81720174   21.86568534   1     502  C
   17.74220014   23.11521901   21.86568573   1     503  C
   21.98614052   22.73590545   21.80684646   1     504  C
   26.23015061   22.36055310   21.75254546   1     505  C
   30.47428769   21.98710825   21.74737796   1     506  C
   34.71817149   21.61205524   21.79417947   1     507  C
   38.96157749   21.23321827   21.85551627   1     508  C

siesta: Program's energy decomposition (eV):
siesta: Ebs     =    -26962.366107
siesta: Eions   =    143338.147527
siesta: Ena     =     31651.624241
siesta: Ekin    =     57733.341500
siesta: Enl     =     -2929.210265
siesta: Eso     =         0.000000
siesta: Edftu   =         0.000000
siesta: DEna    =      3327.541327
siesta: DUscf   =       169.317979
siesta: DUext   =         0.000000
siesta: Ex      =    -27095.969312
siesta: Ec      =     -2576.122633
siesta: Exc     =    -29672.091946
siesta: EbV     =         0.000000
siesta: eta*DQ  =         0.000000
siesta: Emadel  =         0.000000
siesta: Emeta   =         0.000000
siesta: Emolmec =         0.000000
siesta: Ekinion =         0.000000
siesta: Eharris =    -83106.951110
siesta: Etot    =    -83106.952261
siesta: FreeEng =    -83106.952261

siesta: Final energy (eV):
siesta:  Band Struct. =  -26962.366107
siesta:       Kinetic =   57733.341500
siesta:       Hartree = 1341959.877709
siesta:         Edftu =       0.000000
siesta:       Eso     =       0.000000
siesta:    Ext. field =       0.000000
siesta:         Exch. =  -27095.969312
siesta:         Corr. =   -2576.122633
siesta:     Bulk bias =       0.000000
siesta:   Exch.-corr. =  -29672.091946
siesta:  Ion-electron =-2736175.609279
siesta:       Ion-ion = 1283096.857324
siesta:       Ekinion =       0.000000
siesta: D3 dispersion =     -49.327570
siesta:         Total =  -83106.952261
siesta:         Fermi =      -3.951793

siesta: Stress tensor (static) (eV/Ang**3):
siesta:    -0.016231    0.000000    0.000000
siesta:     0.000000   -0.016231   -0.000000
siesta:    -0.000000   -0.000000   -0.002446

siesta: Cell volume =      26623.463814 Ang**3

siesta: Pressure (static):
siesta:                Solid            Molecule  Units
siesta:           0.00012673          0.00012761  Ry/Bohr**3
siesta:           0.01163587          0.01171633  eV/Ang**3
siesta:          18.64272649         18.77163481  kBar
(Free)E+ p_basis*V_orbitals  =      -82800.808108
(Free)Eharris+ p_basis*V_orbitals  =      -82800.806957

siesta: Electric dipole (a.u.)  =    0.000000   -0.000000    0.000000
siesta: Electric dipole (Debye) =    0.000000   -0.000000    0.000000

cite: Please see "Graphene.bib" for an exhaustive BiBTeX file.
cite: Please clearly indicate Siesta version in published work: 5.0.0-alpha-112-g6e4f53aee-dirty
cite: This calculation has made use of the following articles
cite: which are encouraged to be cited in a published work.
        Primary SIESTA paper
          DOI: www.doi.org/10.1088/0953-8984/14/11/302

>> End of run:  30-NOV-2024  21:57:12
Job completed