Runtime information:
* Directory : /n/holylabs/LABS/kaxiras_lab/axzhu/projects/AM207-final-project/N_7/PSO_z
>> Start of run:   1-DEC-2024  14:15:46

reinit: Reading from standard input
reinit: Dumping input in INPUT_TMP.63782
************************** Dump of input data file ****************************
#	Basic Information	#
SystemName      Graphene
SystemLabel     Graphene
#	Structural Information		#
%include structure.fdf
#       DFT Parameters          #
SolutionMethod diagon           # Method of solving system. Can change to OrderN, transiesta, etc.
#Diag.Algorithm MRRR
#NumberOfEigenStates -20 # this will include first 10 conduction bands
XC.Functional   GGA
XC.Authors      PBE
DFTD3 true
Spin non-polarized
Mesh.Cutoff 300 Ry              # Cut off plane waves with kinetic energy higher than this.
MaxSCFIterations 300            # Max number of iterations in the SCF loop.
DM.UseSaveDM true
MinSCFIterations       3
SCF.DM.Tolerance       0.0001
SCF.Mixer.Weight       0.10
SCF.Mixer.History      12
SCF.Mix.First          true
#             Basis             #
#PAO.BasisSize   DZP
PAO.Basis < basis.fdf
#	k-points, Bands, DOS		#
%block kgrid_Monkhorst_Pack
   1  0  0  0.0
   0  1  0  0.0
   0  0  1  0.0
%endblock kgrid_Monkhorst_Pack
#BandLinesScale ReciprocalLatticeVectors
#%block BandLines
#1   0.6666666667  0.3333333333  0.0000000000  K
#10  0.0000000000  0.0000000000  0.0000000000  Gamma
#10  0.5000000000  0.0000000000  0.0000000000  M
#10  0.6666666667  0.3333333333  0.0000000000  K
#%endblock BandLines
# Local density of states (LDOS)
# %block LocalDensityOfStates
# EF 8.40 8.50 eV
# %endblock LocalDensityOfStates
#             Wavefunctions             #
#WaveFuncKPointsScale ReciprocalLatticeVectors
#%block WaveFuncKPoints
#0.666 0.333 0.000 from 4375 to 4378 # K wavefuncs 4375 to 4378
#0.000 0.000 0.000 from 4375 to 4378 # Gamma wavefuncs 4375 to 4378
#0.500 0.000 0.000 from 4375 to 4378 # M wavefuncs 4375 to 4378
#%endblock WaveFuncKPoints
#WriteDenchar T
#       Geometry Optimisation           #
MD.UseSaveXV true
MD.TypeOfRun           CG                  # Conjugate Gradient
MD.NumCGsteps          200                 # Max number of steps
MD.MaxForceTol         0.01    eV/Ang      # 10 meV/Ang
MD.VariableCell        false               # Don't relax cell
MD.MaxCGDispl          0.5 Bohr            # Maximum displacement of any atom
# Fix COM in Z direction only
%block Geometry.Constraints
 center all 0.0 0.0 1.0
%endblock Geometry.Constraints
************************** End of input data file *****************************

reinit: -----------------------------------------------------------------------
reinit: System Name: Graphene
reinit: -----------------------------------------------------------------------
reinit: System Label: Graphene
reinit: -----------------------------------------------------------------------

initatom: Reading input for the pseudopotentials and atomic orbitals ----------
Species number:   1 Atomic number:    6 Label: C

---- Processing specs for species: C
Ground state valence configuration:   2s02  2p02
Reading pseudopotential information in PSML from:
  C.psml
PSML file version: 1.1
GGA--PBE XC_GGA_X_PBE--XC_GGA_C_PBE pb
 Using ATOM defaults for log grid...
PSML uuid: 297821e0-be41-11e7-6802-e1ff7dfff095

---- Pseudopotential check for C

Pseudized shells:
2s( 2.00) rc: 1.20
2p( 2.00) rc: 1.26
Valence configuration for ps generation: 2s:2p: Total charge:   4.000000
For C, standard SIESTA heuristics set lmxkb to 3
 (one more than the basis l, including polarization orbitals).
Use PS.lmax or PS.KBprojectors blocks to override.
C pseudopotential only contains V_ls up to l=1 -- lmxkb reset.

<basis_specs>
C                    Z=   6    Mass=  12.011        Charge= 0.99941
Lmxo=2 Lmxkb= 1    BasisType=split      Semic=F
L=0  Nsemic=0  Cnfigmx=2
          i=1  nzeta=1  polorb=0  (2s)
            splnorm:   0.15000
               vcte:    132.57
               rinn:    4.5256
               qcoe:    0.0000
               qyuk:    0.0000
               qwid:   0.10000E-01
                rcs:    6.0009
            lambdas:    1.0000
L=1  Nsemic=0  Cnfigmx=2
          i=1  nzeta=1  polorb=0  (2p)
            splnorm:   0.15000
               vcte:    6.0639
               rinn:    6.0646
               qcoe:    0.0000
               qyuk:    0.0000
               qwid:   0.10000E-01
                rcs:    6.7108
            lambdas:    1.0000
L=2  Nsemic=0  Cnfigmx=3
          i=1  nzeta=1  polorb=0  (3d)
            splnorm:   0.15000
               vcte:    14.478
               rinn:    4.3208
               qcoe:    0.0000
               qyuk:    0.0000
               qwid:   0.10000E-01
                rcs:    6.2254
            lambdas:    1.0000
L=0  Nkbl=1  erefs: 0.17977+309
L=1  Nkbl=1  erefs: 0.17977+309
</basis_specs>

atom: Called for C                     (Z =   6)
NOTE: C pseudopotential has channels up to l= 1
NOTE: PAOs with higher l will be generated with V_local

read_vps: Pseudopotential generation method:
read_vps: ONCVPSP-3.Hamann's oncvpsp
Valence charge in pseudo generation:    4.00000

read_vps: Pseudopotential includes a core correction:
read_vps: Pseudo-core for xc-correction

xc_check: Exchange-correlation functional:
xc_check: GGA Perdew, Burke & Ernzerhof 1996
Got Vlocal (oncv-fit) from psml data
Choosing vlocal chloc cutoff:  4.139772
qtot up to nchloc:    3.99998844
atom: Maximum radius for chlocal:    4.13977
atom: Maximum radius for r*vlocal+2*Zval:    4.13977
Reading KB projs from C psml data
Using scalar-relativistic projectors in PSML file

PSML: Kleinman-Bylander projectors:
   l= 0   rc=  1.231096   Ekb= 12.963096
   l= 0   rc=  1.231096   Ekb=  0.771007
   l= 1   rc=  1.294237   Ekb= -8.399923
   l= 1   rc=  1.294237   Ekb= -1.755033

PSML: Total number of  Kleinman-Bylander projectors:   8
atom: -------------------------------------------------------------------------

atom: SANKEY-TYPE ORBITALS:

atom: basis set generated (by rescaling the valence charge)
atom: for a cation of charge   0.9994

SPLIT: Orbitals with angular momentum L= 0

SPLIT: Basis orbitals for state 2s

   izeta = 1
                 lambda =    1.000000
                     rc =    6.099293
                 energy =   -2.079355
                kinetic =    1.090115
    potential(screened) =   -3.169470
       potential(ionic) =   -5.727963

[...]

SPLIT: Basis orbitals for state 2p

   izeta = 1
                 lambda =    1.000000
                     rc =    6.740804
                 energy =   -1.441657
                kinetic =    3.222058
    potential(screened) =   -4.663715
       potential(ionic) =   -7.206130
*Note: V_local used for l= 2

** Using vlocal for PAOs with L= 2

SPLIT: Orbitals with angular momentum L= 2

SPLIT: Basis orbitals for state 3d

   izeta = 1
                 lambda =    1.000000
                     rc =    6.253707
                 energy =    0.017329
                kinetic =    1.197074
    potential(screened) =   -1.179745
       potential(ionic) =   -2.838380
atom: Total number of Sankey-type orbitals:  9

atm_pop: Valence configuration (for local Pseudopot. screening):
 2s( 2.00)
 2p( 2.00)
 3d( 0.00)
Vna: chval, zval:    4.00000   4.00000

Vna:  Cut-off radius for the neutral-atom potential:   6.740804
comcore: Pseudo-core radius Rcore=  1.682861

atom: _________________________________________________________________________

prinput: Basis input

PAO.BasisType split

%block ChemicalSpeciesLabel
    1    6 C                       # Species index, atomic number, species label
%endblock ChemicalSpeciesLabel

%block PAO.Basis                 # Define Basis set
# WARNING: This information might be incomplete!
C                     3   0.999            # Label, l-shells, ionic net charge
 n=2   0   1                         # n, l, Nzeta
   6.099
   1.000
 n=2   1   1                         # n, l, Nzeta
   6.741
   1.000
 n=3   2   1                         # n, l, Nzeta
   6.254
   1.000
%endblock PAO.Basis

prinput: ----------------------------------------------------------------------

Dumping basis to NetCDF file C.ion.nc
coor:   Atomic-coordinates input format  =     Cartesian coordinates
coor:                                          (in Angstroms)

siesta: WARNING: XV file not found

siesta: Atomic coordinates (Bohr) and species
siesta:      2.68394   0.00000  34.60839  1        1
siesta:     10.73577   0.00000  34.59487  1        2
siesta:     18.78760   0.00000  34.48950  1        3
siesta:     26.83943   0.00000  34.54447  1        4
siesta:     34.89126   0.00000  34.60314  1        5
siesta:     42.94309   0.00000  34.58063  1        6
siesta:     50.99492   0.00000  34.53049  1        7
siesta:      6.70986   2.32436  34.55060  1        8
siesta:     14.76169   2.32436  34.49492  1        9
siesta:     22.81352   2.32436  34.54784  1       10
siesta:     30.86535   2.32436  34.57813  1       11
siesta:     38.91718   2.32436  34.56459  1       12
siesta:     46.96901   2.32436  34.52228  1       13
siesta:     55.02084   2.32436  34.51390  1       14
siesta:     10.73577   4.64873  34.60159  1       15
siesta:     18.78760   4.64873  34.58193  1       16
siesta:     26.83943   4.64873  34.59216  1       17
siesta:     34.89126   4.64873  34.60757  1       18
siesta:     42.94309   4.64873  34.55300  1       19
siesta:     50.99492   4.64873  34.58528  1       20
siesta:      6.70986   6.97309  34.50962  1       21
siesta:     14.76169   6.97309  34.54187  1       22
siesta:     22.81352   6.97309  34.60128  1       23
siesta:     30.86535   6.97309  34.55538  1       24
siesta:     38.91718   6.97309  34.58436  1       25
siesta:     46.96901   6.97309  34.61119  1       26
siesta:     55.02084   6.97309  34.53671  1       27
siesta:     10.73577   9.29745  34.60015  1       28
siesta:     18.78760   9.29745  34.60278  1       29
siesta:     26.83943   9.29745  34.55987  1       30
siesta:     34.89126   9.29745  34.59290  1       31
siesta:     42.94309   9.29745  34.57205  1       32
siesta:     50.99492   9.29745  34.57752  1       33
siesta:     59.04675   9.29745  34.55263  1       34
siesta:     14.76169  11.62182  34.54476  1       35
siesta:     22.81352  11.62182  34.54615  1       36
siesta:     30.86535  11.62182  34.60718  1       37
siesta:     38.91718  11.62182  34.49111  1       38
siesta:     46.96901  11.62182  34.47103  1       39
siesta:     55.02084  11.62182  34.52088  1       40
siesta:     10.73577  13.94618  34.51094  1       41
siesta:     18.78760  13.94618  34.51606  1       42
siesta:     26.83943  13.94618  34.51474  1       43
siesta:     34.89126  13.94618  34.56199  1       44
siesta:     42.94309  13.94618  34.54435  1       45
siesta:     50.99492  13.94618  34.55468  1       46
siesta:     59.04675  13.94618  34.55628  1       47
siesta:     14.76169  16.27054  34.55074  1       48
siesta:     22.81352  16.27054  34.51796  1       49
siesta:     30.86535  16.27054  34.54507  1       50
siesta:     38.91718  16.27054  34.59216  1       51
siesta:     46.96901  16.27054  34.51121  1       52
siesta:     55.02084  16.27054  34.56168  1       53
[...]
Size of DM history Fstack: 1
Total number of electrons:  2032.000000
Total ionic charge:  2032.000000

* ProcessorY, Blocksize:    8  64

* Orbital distribution balance (max,min):   128    64

 Kpoints in:            1 . Kpoints trimmed:            1

siesta: k-grid: Number of k-points = 1
siesta: k-points from Monkhorst-Pack grid
siesta: k-cutoff (effective) =    13.861 Ang
siesta: k-point supercell and displacements
siesta: k-grid:     1     0     0      0.000
siesta: k-grid:     0     1     0      0.000
siesta: k-grid:     0     0     1      0.000

diag: Algorithm                                     = D&C
diag: Parallel over k                               =   F
diag: Use parallel 2D distribution                  =   T
diag: Parallel block-size                           = 64
diag: Parallel distribution                         =     8 x     8
diag: Used triangular part                          = Lower
diag: Absolute tolerance                            =  0.100E-15
diag: Orthogonalization factor                      =  0.100E-05

siesta: Constraint v=[  0.00000,  0.00000,  1.00000] (508): center-dir
  [ 1 -- 508 ]

ts: **************************************************************
ts: Save H and S matrices                           =    F
ts: Save DM and EDM matrices                        =    F
ts: Only save the overlap matrix S                  =    F
ts: **************************************************************

************************ Begin: TS CHECKS AND WARNINGS ************************
************************ End: TS CHECKS AND WARNINGS **************************

                        Begin CG opt. move =      0

outcell: Unit cell vectors (Ang):
       27.695492   -1.230000    0.000000
       14.912957   23.370000    0.000000
        0.000000    0.000000   40.000000

outcell: Cell vector modules (Ang)   :   27.722792   27.722792   40.000000
outcell: Cell angles (23,13,12) (deg):     90.0000     90.0000     60.0000
outcell: Cell volume (Ang**3)        :  26623.4638
<dSpData1D:S at geom step 0
  <sparsity:sparsity for geom step 0
    nrows_g=4572 nrows=128 sparsity=.0059 nnzs=122400, refcount: 7>
  <dData1D:(new from dSpData1D) n=122400, refcount: 1>
refcount: 1>
new_DM -- step:     1
Initializing Density Matrix...

Attempting to read DM from file... Failed...
DM filled with atomic data:
<dSpData2D:DM initialized from atoms
  <sparsity:sparsity for geom step 0
    nrows_g=4572 nrows=128 sparsity=.0059 nnzs=122400, refcount: 8>
  <dData2D:DM n=122400 m=1, refcount: 1>
refcount: 1>
No. of atoms with KB's overlaping orbs in proc 0. Max # of overlaps:     263     231

InitMesh: MESH = 256 x 256 x 432 = 28311552
InitMesh: Mesh cutoff (required, used) =   300.000   314.229 Ry
New grid distribution [1]: sub = 2
New grid distribution [2]: sub = 2
New grid distribution [3]: sub = 2
Setting up quadratic distribution...

stepf: Fermi-Dirac step function

siesta: Program's energy decomposition (eV):
siesta: Ebs     =    -29676.194770
siesta: Eions   =    143338.147527
siesta: Ena     =     31653.088106
siesta: Ekin    =     55969.976941
siesta: Enl     =     -2517.255009
siesta: Eso     =         0.000000
siesta: Edftu   =         0.000000
siesta: DEna    =      4302.514424
siesta: DUscf   =       275.581961
siesta: DUext   =         0.000000
siesta: Ex      =    -26776.375049
siesta: Ec      =     -2582.319562
siesta: Exc     =    -29358.694610
siesta: EbV     =         0.000000
siesta: eta*DQ  =         0.000000
siesta: Emadel  =         0.000000
siesta: Emeta   =         0.000000
siesta: Emolmec =         0.000000
siesta: Ekinion =         0.000000
siesta: Eharris =    -85021.766033
siesta: Etot    =    -83012.935715
siesta: FreeEng =    -83012.935715

SCF Convergence by DM+H criterion
max |DM_out - DM_in|         :     0.0000632940
max |H_out - H_in|      (eV) :     0.0004289017
SCF cycle converged after 11 iterations

Using DM_out to compute the final energy and forces
No. of atoms with KB's overlaping orbs in proc 0. Max # of overlaps:     263     231
System symmetry is of type slab but no DFTD3.Periodic list was found. Attempting to guess symmetry for D3.
Could not guess the right amount of periodicity directions for D3.
Enabling periodicity on all directions.

siesta: E_KS(eV) =           -83105.3969

siesta: E_KS - E_eggbox =    -83105.3969

siesta: Atomic forces (eV/Ang):
   Tot    0.001058   -0.001635   -0.002879
   Max    1.055103
   Res    0.197636    sqrt( Sum f_i^2 / 3N )
   Max    1.055103    constrained

Stress tensor Voigt[x,y,z,yz,xz,xy] (kbar):      -25.71      -25.72       -4.60       -0.00        0.00        0.00
(Free)E + p*V (eV/cell)   -82795.0439
Target enthalpy (eV/cell)   -83105.3969

[...]

outcell: Cell vector modules (Ang)   :   27.722792   27.722792   40.000000
outcell: Cell angles (23,13,12) (deg):     90.0000     90.0000     60.0000
outcell: Cell volume (Ang**3)        :  26623.4638
<dSpData1D:S at geom step 1
  <sparsity:sparsity for geom step 1
    nrows_g=4572 nrows=128 sparsity=.0059 nnzs=122301, refcount: 7>
  <dData1D:(new from dSpData1D) n=122301, refcount: 1>
refcount: 1>
new_DM -- step:     2
Re-using DM from previous geometries...
Number of DMs in history: 1
 DM extrapolation coefficients:
1   1.00000
New DM after history re-use:
<dSpData2D:SpM extrapolated using coords
  <sparsity:sparsity for geom step 1
    nrows_g=4572 nrows=128 sparsity=.0059 nnzs=122301, refcount: 9>
  <dData2D:(temp array for extrapolation) n=122301 m=1, refcount: 1>
refcount: 1>
No. of atoms with KB's overlaping orbs in proc 0. Max # of overlaps:     260     231

[...]

        iscf     Eharris(eV)        E_KS(eV)     FreeEng(eV)     dDmax    Ef(eV) dHmax(eV)
   scf:    1   -83107.020768   -83106.546453   -83106.546453  0.020147 -3.948078  0.438048
   scf:    2   -83102.708141   -83105.351852   -83105.351852  0.016314 -3.946602  2.330161
   scf:    3   -83106.751279   -83106.586134   -83106.586134  0.013664 -3.946218  0.042564
   scf:    4   -83106.589086   -83106.587839   -83106.587839  0.000651 -3.945929  0.015918
   scf:    5   -83106.589014   -83106.588459   -83106.588459  0.000298 -3.945733  0.009056
   scf:    6   -83106.589016   -83106.588761   -83106.588761  0.000309 -3.945576  0.003200
   scf:    7   -83106.588813   -83106.588790   -83106.588790  0.000090 -3.945533  0.001368
   scf:    8   -83106.588797   -83106.588794   -83106.588794  0.000029 -3.945529  0.000458

[...]

cgvc: Finished line minimization    1.  Mean atomic displacement =    0.0264

[...]

SCF Convergence by DM+H criterion
max |DM_out - DM_in|         :     0.0000195818
max |H_out - H_in|      (eV) :     0.0006075966
SCF cycle converged after 1 iterations
SCF cycle continued for minimum number of iterations: 3
   scf:    2   -83106.964110   -83106.964117   -83106.964117  0.000047 -3.918537  0.002561
   scf:    3   -83106.964121   -83106.964121   -83106.964121  0.000037 -3.918558  0.000131

[...]

cgvc: Finished line minimization   31.  Mean atomic displacement =    0.0009

                        Begin CG opt. move =     78

outcell: Unit cell vectors (Ang):
       27.695492   -1.230000    0.000000
       14.912957   23.370000    0.000000
        0.000000    0.000000   40.000000

outcell: Cell vector modules (Ang)   :   27.722792   27.722792   40.000000
outcell: Cell angles (23,13,12) (deg):     90.0000     90.0000     60.0000
outcell: Cell volume (Ang**3)        :  26623.4638
<dSpData1D:S at geom step 78
  <sparsity:sparsity for geom step 78
    nrows_g=4572 nrows=128 sparsity=.0058 nnzs=121105, refcount: 7>
  <dData1D:(new from dSpData1D) n=121105, refcount: 1>
refcount: 1>
new_DM -- step:    79
Re-using DM from previous geometries...
Number of DMs in history: 1
 DM extrapolation coefficients:
1   1.00000
New DM after history re-use:
<dSpData2D:SpM extrapolated using coords
  <sparsity:sparsity for geom step 78
    nrows_g=4572 nrows=128 sparsity=.0058 nnzs=121105, refcount: 9>
  <dData2D:(temp array for extrapolation) n=121105 m=1, refcount: 1>
refcount: 1>
No. of atoms with KB's overlaping orbs in proc 0. Max # of overlaps:     252     229

InitMesh: MESH = 256 x 256 x 432 = 28311552
InitMesh: Mesh cutoff (required, used) =   300.000   314.229 Ry
New grid distribution [1]: sub = 2
New grid distribution [2]: sub = 2
New grid distribution [3]: sub = 2
Setting up quadratic distribution...

        iscf     Eharris(eV)        E_KS(eV)     FreeEng(eV)     dDmax    Ef(eV) dHmax(eV)
   scf:    1   -83106.977012   -83106.971288   -83106.971288  0.005258 -3.925831  0.010953
   scf:    2   -83106.967796   -83106.970292   -83106.970292  0.000755 -3.926120  0.048431
   scf:    3   -83106.971553   -83106.971414   -83106.971414  0.000602 -3.925866  0.002639
   scf:    4   -83106.971430   -83106.971425   -83106.971425  0.000061 -3.925859  0.000601

SCF Convergence by DM+H criterion
max |DM_out - DM_in|         :     0.0000608741
max |H_out - H_in|      (eV) :     0.0006007587
SCF cycle converged after 4 iterations

Using DM_out to compute the final energy and forces
No. of atoms with KB's overlaping orbs in proc 0. Max # of overlaps:     252     229
System symmetry is of type slab but no DFTD3.Periodic list was found. Attempting to guess symmetry for D3.
Could not guess the right amount of periodicity directions for D3.
Enabling periodicity on all directions.

siesta: E_KS(eV) =           -83106.9679

siesta: Atomic forces (eV/Ang):
   Tot    0.000365    0.001020   -0.001655
   Max    0.009306
   Res    0.003084    sqrt( Sum f_i^2 / 3N )
   Max    0.009304    constrained

Stress tensor Voigt[x,y,z,yz,xz,xy] (kbar):      -25.98      -25.98       -4.15       -0.00       -0.00        0.00
(Free)E + p*V (eV/cell)   -82796.1830
Target enthalpy (eV/cell)   -83106.9679

outcoor: Relaxed atomic coordinates (Ang):
    1.42049758    0.00092571   18.17019535   1       1  C
    5.68154295    0.00326166   18.20392645   1       2  C
    9.94208720    0.00283203   18.24896873   1       3  C
   14.20274290   -0.00026865   18.26980513   1       4  C
   18.46323667   -0.00314904   18.25061049   1       5  C
   22.72353030   -0.00309188   18.20102352   1       6  C
   26.98444785   -0.00053992   18.16915498   1       7  C
    3.55020177    1.23239011   18.18810446   1       8  C
    7.81118907    1.23347137   18.23048074   1       9  C
   12.07211808    1.23156792   18.26679362   1      10  C
   16.33265272    1.22812551   18.26811585   1      11  C
   20.59279603    1.22658039   18.23033314   1      12  C
   24.85303244    1.22812205   18.18573154   1      13  C
   29.11418237    1.23099053   18.18078099   1      14  C
    5.68010148    2.46319892   18.21161509   1      15  C
    9.94130958    2.46281566   18.25671885   1      16  C
   14.20217467    2.45987650   18.27538943   1      17  C
   18.46238040    2.45721370   18.25561013   1      18  C
   22.72225634    2.45714131   18.21411912   1      19  C
   26.98276284    2.45959655   18.18585556   1      20  C
    3.54870486    3.69227794   18.20159453   1      21  C
    7.81026402    3.69311594   18.24216149   1      22  C
   12.07160432    3.69142604   18.27431655   1      23  C
   16.33223544    3.68853451   18.27349670   1      24  C
   20.59196888    3.68708171   18.24228535   1      25  C
   24.85188304    3.68832949   18.20552730   1      26  C
   29.11288960    3.69097834   18.20034216   1      27  C
    5.67907563    4.92268011   18.22894824   1      28  C
    9.94097414    4.92225028   18.26587714   1      29  C
   14.20218612    4.91998825   18.28253385   1      30  C
   18.46213263    4.91776253   18.26461020   1      31  C
   22.72159559    4.91772960   18.23280460   1      32  C
   26.98182879    4.91966062   18.21084637   1      33  C
   31.24330926    4.92168609   18.22273215   1      34  C
    7.81002113    6.15223215   18.25593736   1      35  C
   12.07189864    6.15101275   18.28077720   1      36  C
   16.33254463    6.14881227   18.27941481   1      37  C
   20.59193766    6.14772524   18.25771649   1      38  C
   24.85151058    6.14877216   18.23106156   1      39  C
   29.11234318    6.15066551   18.22633640   1      40  C
    5.67879798    7.38172834   18.24914067   1      41  C
    9.94141441    7.38144121   18.27177895   1      42  C
   14.20291327    7.37981636   18.28580019   1      43  C
   18.46269423    7.37838237   18.27379191   1      44  C
   22.72197725    7.37839370   18.25225133   1      45  C
   26.98183551    7.37962142   18.23878883   1      46  C
   31.24324624    7.38099749   18.24583629   1      47  C
    7.81052373    8.61132724   18.26543295   1      48  C
   12.07283208    8.61047124   18.28217083   1      49  C
   16.33357466    8.60920337   18.27968895   1      50  C
   20.59286953    8.60873334   18.26743664   1      51  C
   24.85214004    8.60918389   18.25400584   1      52  C
   29.11280266    8.61024607   18.25036974   1      53  C
   33.37510125    8.61077143   18.26245482   1      54  C
    9.94242108    9.84041536   18.27233879   1      55  C
   14.20412638    9.83973700   18.27805654   1      56  C
   18.46405584    9.83917958   18.27097852   1      57  C
   22.72300505    9.83926017   18.26376356   1      58  C
   26.98277070    9.83982884   18.26017368   1      59  C
   31.24419612    9.84014650   18.26309115   1      60  C
[...]
   34.49906178   19.16047222   21.76536785   1     494  C
   38.74226297   18.78169192   21.79490640   1     495  C
   15.51027064   22.08142942   21.82116972   1     496  C
   19.75446600   21.70124756   21.79656686   1     497  C
   23.99859314   21.32355537   21.75297191   1     498  C
   28.24287856   20.94870899   21.73082932   1     499  C
   32.48682384   20.57400465   21.74979774   1     500  C
   36.73019261   20.19675751   21.78830856   1     501  C
   40.97380783   19.81680035   21.81121436   1     502  C
   17.74237285   23.11627367   21.81837732   1     503  C
   21.98625564   22.73719478   21.77784765   1     504  C
   26.23024898   22.36103964   21.74007139   1     505  C
   30.47428546   21.98675863   21.73490551   1     506  C
   34.71807428   21.61115115   21.77294230   1     507  C
   38.96171178   21.23218488   21.80842884   1     508  C

siesta: Program's energy decomposition (eV):
siesta: Ebs     =    -26959.877143
siesta: Eions   =    143338.147527
siesta: Ena     =     31651.440548
siesta: Ekin    =     57736.060501
siesta: Enl     =     -2929.151169
siesta: Eso     =         0.000000
siesta: Edftu   =         0.000000
siesta: DEna    =      3326.800221
siesta: DUscf   =       169.116939
siesta: DUext   =         0.000000
siesta: Ex      =    -27096.590924
siesta: Ec      =     -2576.786453
siesta: Exc     =    -29673.377378
siesta: EbV     =         0.000000
siesta: eta*DQ  =         0.000000
siesta: Emadel  =         0.000000
siesta: Emeta   =         0.000000
siesta: Emolmec =         0.000000
siesta: Ekinion =         0.000000
siesta: Eharris =    -83106.971430
siesta: Etot    =    -83106.967869
siesta: FreeEng =    -83106.967869

siesta: Final energy (eV):
siesta:  Band Struct. =  -26959.877143
siesta:       Kinetic =   57736.060501
siesta:       Hartree = 1346625.540148
siesta:         Edftu =       0.000000
siesta:       Eso     =       0.000000
siesta:    Ext. field =       0.000000
siesta:         Exch. =  -27096.590924
siesta:         Corr. =   -2576.786453
siesta:     Bulk bias =       0.000000
siesta:   Exch.-corr. =  -29673.377378
siesta:  Ion-electron =-2745505.254088
siesta:       Ion-ion = 1287759.772952
siesta:       Ekinion =       0.000000
siesta: D3 dispersion =     -49.710004
siesta:         Total =  -83106.967869
siesta:         Fermi =      -3.925859

siesta: Stress tensor (static) (eV/Ang**3):
siesta:    -0.016213    0.000002   -0.000000
siesta:     0.000002   -0.016217   -0.000000
siesta:    -0.000000   -0.000000   -0.002589

siesta: Cell volume =      26623.463814 Ang**3

siesta: Pressure (static):
siesta:                Solid            Molecule  Units
siesta:           0.00012714          0.00012709  Ry/Bohr**3
siesta:           0.01167334          0.01166880  eV/Ang**3
siesta:          18.70275939         18.69547805  kBar
(Free)E+ p_basis*V_orbitals  =      -82800.823716
(Free)Eharris+ p_basis*V_orbitals  =      -82800.827277

siesta: Electric dipole (a.u.)  =    0.000000   -0.000000   -0.000080
siesta: Electric dipole (Debye) =    0.000000   -0.000000   -0.000202

cite: Please see "Graphene.bib" for an exhaustive BiBTeX file.
cite: Please clearly indicate Siesta version in published work: 5.0.0-alpha-112-g6e4f53aee-dirty
cite: This calculation has made use of the following articles
cite: which are encouraged to be cited in a published work.
        Primary SIESTA paper
          DOI: www.doi.org/10.1088/0953-8984/14/11/302

>> End of run:   1-DEC-2024  15:28:30
Job completed