Runtime information:
* Directory : /n/holylabs/LABS/kaxiras_lab/axzhu/projects/AM207-final-project/N_9/PSO-2params
>> Start of run:  30-NOV-2024  20:47:49

reinit: Reading from standard input
reinit: Dumping input in INPUT_TMP.93039
************************** Dump of input data file ****************************
#	Basic Information	#
SystemName      Graphene
SystemLabel     Graphene
#	Structural Information		#
%include structure.fdf
#       DFT Parameters          #
SolutionMethod diagon           # Method of solving system. Can change to OrderN, transiesta, etc.
#Diag.Algorithm MRRR
#NumberOfEigenStates -20 # this will include first 10 conduction bands
XC.Functional   GGA
XC.Authors      PBE
DFTD3 true
Spin non-polarized
Mesh.Cutoff 300 Ry              # Cut off plane waves with kinetic energy higher than this.
MaxSCFIterations 300            # Max number of iterations in the SCF loop.
DM.UseSaveDM true
MinSCFIterations       3
SCF.DM.Tolerance       0.0001
SCF.Mixer.Weight       0.10
SCF.Mixer.History      12
SCF.Mix.First          true
#             Basis             #
#PAO.BasisSize   DZP
PAO.Basis < basis.fdf
#	k-points, Bands, DOS		#
%block kgrid_Monkhorst_Pack
   1  0  0  0.0
   0  1  0  0.0
   0  0  1  0.0
%endblock kgrid_Monkhorst_Pack
#BandLinesScale ReciprocalLatticeVectors
#%block BandLines
#1   0.6666666667  0.3333333333  0.0000000000  K
#10  0.0000000000  0.0000000000  0.0000000000  Gamma
#10  0.5000000000  0.0000000000  0.0000000000  M
#10  0.6666666667  0.3333333333  0.0000000000  K
#%endblock BandLines
# Local density of states (LDOS)
# %block LocalDensityOfStates
# EF 8.40 8.50 eV
# %endblock LocalDensityOfStates
#             Wavefunctions             #
#WaveFuncKPointsScale ReciprocalLatticeVectors
#%block WaveFuncKPoints
#0.666 0.333 0.000 from 4375 to 4378 # K wavefuncs 4375 to 4378
#0.000 0.000 0.000 from 4375 to 4378 # Gamma wavefuncs 4375 to 4378
#0.500 0.000 0.000 from 4375 to 4378 # M wavefuncs 4375 to 4378
#%endblock WaveFuncKPoints
#WriteDenchar T
#       Geometry Optimisation           #
MD.UseSaveXV true
MD.TypeOfRun           CG                  # Conjugate Gradient
MD.NumCGsteps          200                 # Max number of steps
MD.MaxForceTol         0.01    eV/Ang      # 10 meV/Ang
MD.VariableCell        false               # Don't relax cell
MD.MaxCGDispl          0.5 Bohr            # Maximum displacement of any atom
# Fix COM in Z direction only
%block Geometry.Constraints
 center all 0.0 0.0 1.0
%endblock Geometry.Constraints
************************** End of input data file *****************************

reinit: -----------------------------------------------------------------------
reinit: System Name: Graphene
reinit: -----------------------------------------------------------------------
reinit: System Label: Graphene
reinit: -----------------------------------------------------------------------

initatom: Reading input for the pseudopotentials and atomic orbitals ----------
Species number:   1 Atomic number:    6 Label: C

---- Processing specs for species: C
Ground state valence configuration:   2s02  2p02
Reading pseudopotential information in PSML from:
  C.psml
PSML file version: 1.1
GGA--PBE XC_GGA_X_PBE--XC_GGA_C_PBE pb
 Using ATOM defaults for log grid...
PSML uuid: 297821e0-be41-11e7-6802-e1ff7dfff095

---- Pseudopotential check for C

Pseudized shells:
2s( 2.00) rc: 1.20
2p( 2.00) rc: 1.26
Valence configuration for ps generation: 2s:2p: Total charge:   4.000000
For C, standard SIESTA heuristics set lmxkb to 3
 (one more than the basis l, including polarization orbitals).
Use PS.lmax or PS.KBprojectors blocks to override.
C pseudopotential only contains V_ls up to l=1 -- lmxkb reset.

<basis_specs>
C                    Z=   6    Mass=  12.011        Charge= 0.99941
Lmxo=2 Lmxkb= 1    BasisType=split      Semic=F
L=0  Nsemic=0  Cnfigmx=2
          i=1  nzeta=1  polorb=0  (2s)
            splnorm:   0.15000
               vcte:    132.57
               rinn:    4.5256
               qcoe:    0.0000
               qyuk:    0.0000
               qwid:   0.10000E-01
                rcs:    6.0009
            lambdas:    1.0000
L=1  Nsemic=0  Cnfigmx=2
          i=1  nzeta=1  polorb=0  (2p)
            splnorm:   0.15000
               vcte:    6.0639
               rinn:    6.0646
               qcoe:    0.0000
               qyuk:    0.0000
               qwid:   0.10000E-01
                rcs:    6.7108
            lambdas:    1.0000
L=2  Nsemic=0  Cnfigmx=3
          i=1  nzeta=1  polorb=0  (3d)
            splnorm:   0.15000
               vcte:    14.478
               rinn:    4.3208
               qcoe:    0.0000
               qyuk:    0.0000
               qwid:   0.10000E-01
                rcs:    6.2254
            lambdas:    1.0000
L=0  Nkbl=1  erefs: 0.17977+309
L=1  Nkbl=1  erefs: 0.17977+309
</basis_specs>

atom: Called for C                     (Z =   6)
NOTE: C pseudopotential has channels up to l= 1
NOTE: PAOs with higher l will be generated with V_local

read_vps: Pseudopotential generation method:
read_vps: ONCVPSP-3.Hamann's oncvpsp
Valence charge in pseudo generation:    4.00000

read_vps: Pseudopotential includes a core correction:
read_vps: Pseudo-core for xc-correction

xc_check: Exchange-correlation functional:
xc_check: GGA Perdew, Burke & Ernzerhof 1996
Got Vlocal (oncv-fit) from psml data
Choosing vlocal chloc cutoff:  4.139772
qtot up to nchloc:    3.99998844
atom: Maximum radius for chlocal:    4.13977
atom: Maximum radius for r*vlocal+2*Zval:    4.13977
Reading KB projs from C psml data
Using scalar-relativistic projectors in PSML file

PSML: Kleinman-Bylander projectors:
   l= 0   rc=  1.231096   Ekb= 12.963096
   l= 0   rc=  1.231096   Ekb=  0.771007
   l= 1   rc=  1.294237   Ekb= -8.399923
   l= 1   rc=  1.294237   Ekb= -1.755033

PSML: Total number of  Kleinman-Bylander projectors:   8
atom: -------------------------------------------------------------------------

atom: SANKEY-TYPE ORBITALS:

atom: basis set generated (by rescaling the valence charge)
atom: for a cation of charge   0.9994

SPLIT: Orbitals with angular momentum L= 0

SPLIT: Basis orbitals for state 2s

   izeta = 1
                 lambda =    1.000000
                     rc =    6.099293
                 energy =   -2.079355
                kinetic =    1.090115
    potential(screened) =   -3.169470
       potential(ionic) =   -5.727963

[...]

SPLIT: Basis orbitals for state 2p

   izeta = 1
                 lambda =    1.000000
                     rc =    6.740804
                 energy =   -1.441657
                kinetic =    3.222058
    potential(screened) =   -4.663715
       potential(ionic) =   -7.206130
*Note: V_local used for l= 2

** Using vlocal for PAOs with L= 2

SPLIT: Orbitals with angular momentum L= 2

SPLIT: Basis orbitals for state 3d

   izeta = 1
                 lambda =    1.000000
                     rc =    6.253707
                 energy =    0.017329
                kinetic =    1.197074
    potential(screened) =   -1.179745
       potential(ionic) =   -2.838380
atom: Total number of Sankey-type orbitals:  9

atm_pop: Valence configuration (for local Pseudopot. screening):
 2s( 2.00)
 2p( 2.00)
 3d( 0.00)
Vna: chval, zval:    4.00000   4.00000

Vna:  Cut-off radius for the neutral-atom potential:   6.740804
comcore: Pseudo-core radius Rcore=  1.682861

atom: _________________________________________________________________________

prinput: Basis input

PAO.BasisType split

%block ChemicalSpeciesLabel
    1    6 C                       # Species index, atomic number, species label
%endblock ChemicalSpeciesLabel

%block PAO.Basis                 # Define Basis set
# WARNING: This information might be incomplete!
C                     3   0.999            # Label, l-shells, ionic net charge
 n=2   0   1                         # n, l, Nzeta
   6.099
   1.000
 n=2   1   1                         # n, l, Nzeta
   6.741
   1.000
 n=3   2   1                         # n, l, Nzeta
   6.254
   1.000
%endblock PAO.Basis

prinput: ----------------------------------------------------------------------

Dumping basis to NetCDF file C.ion.nc
coor:   Atomic-coordinates input format  =     Cartesian coordinates
coor:                                          (in Angstroms)

siesta: WARNING: XV file not found

siesta: Atomic coordinates (Bohr) and species
siesta:      2.68394   0.00000  34.56753  1        1
siesta:     10.73577   0.00000  34.56753  1        2
siesta:     18.78760   0.00000  34.56753  1        3
siesta:     26.83943   0.00000  34.56753  1        4
siesta:     34.89126   0.00000  34.56753  1        5
siesta:     42.94309   0.00000  34.56753  1        6
siesta:     50.99492   0.00000  34.56753  1        7
siesta:     59.04675   0.00000  34.56753  1        8
siesta:     67.09858   0.00000  34.56753  1        9
siesta:      6.70986   2.32436  34.56753  1       10
siesta:     14.76169   2.32436  34.56753  1       11
siesta:     22.81352   2.32436  34.56753  1       12
siesta:     30.86535   2.32436  34.56753  1       13
siesta:     38.91718   2.32436  34.56753  1       14
siesta:     46.96901   2.32436  34.56753  1       15
siesta:     55.02084   2.32436  34.56753  1       16
siesta:     63.07267   2.32436  34.56753  1       17
siesta:     71.12450   2.32436  34.56753  1       18
siesta:     10.73577   4.64873  34.56753  1       19
siesta:     18.78760   4.64873  34.56753  1       20
siesta:     26.83943   4.64873  34.56753  1       21
siesta:     34.89126   4.64873  34.56753  1       22
siesta:     42.94309   4.64873  34.56753  1       23
siesta:     50.99492   4.64873  34.56753  1       24
siesta:     59.04675   4.64873  34.56753  1       25
siesta:     67.09858   4.64873  34.56753  1       26
siesta:      6.70986   6.97309  34.56753  1       27
siesta:     14.76169   6.97309  34.56753  1       28
siesta:     22.81352   6.97309  34.56753  1       29
siesta:     30.86535   6.97309  34.56753  1       30
siesta:     38.91718   6.97309  34.56753  1       31
siesta:     46.96901   6.97309  34.56753  1       32
siesta:     55.02084   6.97309  34.56753  1       33
siesta:     63.07267   6.97309  34.56753  1       34
siesta:     71.12450   6.97309  34.56753  1       35
siesta:     10.73577   9.29745  34.56753  1       36
siesta:     18.78760   9.29745  34.56753  1       37
siesta:     26.83943   9.29745  34.56753  1       38
siesta:     34.89126   9.29745  34.56753  1       39
siesta:     42.94309   9.29745  34.56753  1       40
siesta:     50.99492   9.29745  34.56753  1       41
siesta:     59.04675   9.29745  34.56753  1       42
siesta:     67.09858   9.29745  34.56753  1       43
siesta:     75.15041   9.29745  34.56753  1       44
siesta:     14.76169  11.62182  34.56753  1       45
siesta:     22.81352  11.62182  34.56753  1       46
siesta:     30.86535  11.62182  34.56753  1       47
siesta:     38.91718  11.62182  34.56753  1       48
siesta:     46.96901  11.62182  34.56753  1       49
siesta:     55.02084  11.62182  34.56753  1       50
siesta:     63.07267  11.62182  34.56753  1       51
siesta:     71.12450  11.62182  34.56753  1       52
siesta:     10.73577  13.94618  34.56753  1       53
[...]
mix.SCF:    Mixing weight                        =     0.100000
mix.SCF:    SVD condition                        = 0.1000E-07
redata: Save all siesta data in one NC              =   F
redata: ***********************************************************************

%block SCF.Mixers
  Pulay
%endblock SCF.Mixers

%block SCF.Mixer.Pulay
  # Mixing method
  method pulay
  variant stable

  # Mixing options
  weight 0.1000
  weight.linear 0.1000
  history 12
%endblock SCF.Mixer.Pulay

DFT-D3: loading default parameters for functional PBE.
DM_history_depth set to one: no extrapolation allowed by default for geometry relaxation
Size of DM history Fstack: 1
Total number of electrons:  3472.000000
Total ionic charge:  3472.000000

* ProcessorY, Blocksize:    8  64

* Orbital distribution balance (max,min):   128    64

 Kpoints in:            1 . Kpoints trimmed:            1

siesta: k-grid: Number of k-points = 1
siesta: k-points from Monkhorst-Pack grid
siesta: k-cutoff (effective) =    18.119 Ang
siesta: k-point supercell and displacements
siesta: k-grid:     1     0     0      0.000
siesta: k-grid:     0     1     0      0.000
siesta: k-grid:     0     0     1      0.000

diag: Algorithm                                     = D&C
diag: Parallel over k                               =   F
diag: Use parallel 2D distribution                  =   T
diag: Parallel block-size                           = 64
diag: Parallel distribution                         =     8 x     8
diag: Used triangular part                          = Lower
diag: Absolute tolerance                            =  0.100E-15
diag: Orthogonalization factor                      =  0.100E-05

siesta: Constraint v=[  0.00000,  0.00000,  1.00000] (868): center-dir
  [ 1 -- 868 ]

ts: **************************************************************
ts: Save H and S matrices                           =    F
ts: Save DM and EDM matrices                        =    F
ts: Only save the overlap matrix S                  =    F
ts: **************************************************************

************************ Begin: TS CHECKS AND WARNINGS ************************
************************ End: TS CHECKS AND WARNINGS **************************

                        Begin CG opt. move =      0

outcell: Unit cell vectors (Ang):
       36.217182   -1.230000    0.000000
       19.173802   30.750000    0.000000
        0.000000    0.000000   40.000000

outcell: Cell vector modules (Ang)   :   36.238063   36.238063   40.000000
outcell: Cell angles (23,13,12) (deg):     90.0000     90.0000     60.0000
outcell: Cell volume (Ang**3)        :  45490.4854
<dSpData1D:S at geom step 0
  <sparsity:sparsity for geom step 0
    nrows_g=7812 nrows=128 sparsity=.0020 nnzs=122868, refcount: 7>
  <dData1D:(new from dSpData1D) n=122868, refcount: 1>
refcount: 1>
new_DM -- step:     1
Initializing Density Matrix...

Attempting to read DM from file... Failed...
DM filled with atomic data:
<dSpData2D:DM initialized from atoms
  <sparsity:sparsity for geom step 0
    nrows_g=7812 nrows=128 sparsity=.0020 nnzs=122868, refcount: 8>
  <dData2D:DM n=122868 m=1, refcount: 1>
refcount: 1>
No. of atoms with KB's overlaping orbs in proc 0. Max # of overlaps:     241     231

InitMesh: MESH = 360 x 360 x 432 = 55987200
InitMesh: Mesh cutoff (required, used) =   300.000   322.366 Ry
New grid distribution [1]: sub = 2
New grid distribution [2]: sub = 2
New grid distribution [3]: sub = 2
Setting up quadratic distribution...

stepf: Fermi-Dirac step function

siesta: Program's energy decomposition (eV):
siesta: Ebs     =    -50734.412059
siesta: Eions   =    244916.362311
siesta: Ena     =     54081.043409
siesta: Ekin    =     95655.853841
siesta: Enl     =     -4306.684093
siesta: Eso     =         0.000000
siesta: Edftu   =         0.000000
siesta: DEna    =      7343.766460
siesta: DUscf   =       470.030538
siesta: DUext   =         0.000000
siesta: Ex      =    -45757.152812
siesta: Ec      =     -4413.158285
siesta: Exc     =    -50170.311097
siesta: EbV     =         0.000000
siesta: eta*DQ  =         0.000000
siesta: Emadel  =         0.000000
siesta: Emeta   =         0.000000
siesta: Emolmec =         0.000000
siesta: Ekinion =         0.000000
siesta: Eharris =   -145273.761098
siesta: Etot    =   -141842.663252
siesta: FreeEng =   -141842.663253

SCF Convergence by DM+H criterion
max |DM_out - DM_in|         :     0.0000487618
max |H_out - H_in|      (eV) :     0.0006952168
SCF cycle converged after 10 iterations

Using DM_out to compute the final energy and forces
No. of atoms with KB's overlaping orbs in proc 0. Max # of overlaps:     241     231
System symmetry is of type slab but no DFTD3.Periodic list was found. Attempting to guess symmetry for D3.
Could not guess the right amount of periodicity directions for D3.
Enabling periodicity on all directions.

siesta: E_KS(eV) =          -142000.6806

siesta: E_KS - E_eggbox =   -142000.6806

siesta: Atomic forces (eV/Ang):
   Tot   -0.000000   -0.000000    0.009101
   Max    0.034551
   Res    0.010273    sqrt( Sum f_i^2 / 3N )
   Max    0.034551    constrained

Stress tensor Voigt[x,y,z,yz,xz,xy] (kbar):      -25.89      -25.90       -4.85        0.00        0.00        0.00
(Free)E + p*V (eV/cell)  -141464.6338
Target enthalpy (eV/cell)  -142000.6806

[...]

outcell: Cell vector modules (Ang)   :   36.238063   36.238063   40.000000
outcell: Cell angles (23,13,12) (deg):     90.0000     90.0000     60.0000
outcell: Cell volume (Ang**3)        :  45490.4854
<dSpData1D:S at geom step 1
  <sparsity:sparsity for geom step 1
    nrows_g=7812 nrows=128 sparsity=.0020 nnzs=122580, refcount: 7>
  <dData1D:(new from dSpData1D) n=122580, refcount: 1>
refcount: 1>
new_DM -- step:     2
Re-using DM from previous geometries...
Number of DMs in history: 1
 DM extrapolation coefficients:
1   1.00000
New DM after history re-use:
<dSpData2D:SpM extrapolated using coords
  <sparsity:sparsity for geom step 1
    nrows_g=7812 nrows=128 sparsity=.0020 nnzs=122580, refcount: 9>
  <dData2D:(temp array for extrapolation) n=122580 m=1, refcount: 1>
refcount: 1>
No. of atoms with KB's overlaping orbs in proc 0. Max # of overlaps:     239     231

[...]

        iscf     Eharris(eV)        E_KS(eV)     FreeEng(eV)     dDmax    Ef(eV) dHmax(eV)
   scf:    1  -142001.606598  -142000.898557  -142000.898557  0.003680 -3.954267  0.040147
   scf:    2  -142000.822093  -142000.875114  -142000.875114  0.001116 -3.951802  0.270110
   scf:    3  -142000.902108  -142000.899779  -142000.899780  0.000943 -3.953812  0.006534
   scf:    4  -142000.900551  -142000.900196  -142000.900196  0.000078 -3.953560  0.003766
   scf:    5  -142000.900444  -142000.900326  -142000.900326  0.000054 -3.953689  0.001798
   scf:    6  -142000.900397  -142000.900365  -142000.900365  0.000044 -3.953892  0.000564

[...]

cgvc: Finished line minimization    1.  Mean atomic displacement =    0.0082

[...]

cgvc: Finished line minimization   16.  Mean atomic displacement =    0.0005

                        Begin CG opt. move =     41

outcell: Unit cell vectors (Ang):
       36.217182   -1.230000    0.000000
       19.173802   30.750000    0.000000
        0.000000    0.000000   40.000000

outcell: Cell vector modules (Ang)   :   36.238063   36.238063   40.000000
outcell: Cell angles (23,13,12) (deg):     90.0000     90.0000     60.0000
outcell: Cell volume (Ang**3)        :  45490.4854
<dSpData1D:S at geom step 41
  <sparsity:sparsity for geom step 41
    nrows_g=7812 nrows=128 sparsity=.0020 nnzs=121149, refcount: 7>
  <dData1D:(new from dSpData1D) n=121149, refcount: 1>
refcount: 1>
new_DM -- step:    42
Re-using DM from previous geometries...
Number of DMs in history: 1
 DM extrapolation coefficients:
1   1.00000
New DM after history re-use:
<dSpData2D:SpM extrapolated using coords
  <sparsity:sparsity for geom step 41
    nrows_g=7812 nrows=128 sparsity=.0020 nnzs=121149, refcount: 9>
  <dData2D:(temp array for extrapolation) n=121149 m=1, refcount: 1>
refcount: 1>
No. of atoms with KB's overlaping orbs in proc 0. Max # of overlaps:     234     229

InitMesh: MESH = 360 x 360 x 432 = 55987200
InitMesh: Mesh cutoff (required, used) =   300.000   322.366 Ry
New grid distribution [1]: sub = 2
New grid distribution [2]: sub = 2
New grid distribution [3]: sub = 2
Setting up quadratic distribution...

        iscf     Eharris(eV)        E_KS(eV)     FreeEng(eV)     dDmax    Ef(eV) dHmax(eV)
   scf:    1  -142001.051074  -142001.050085  -142001.050085  0.001323 -3.956986  0.038443
   scf:    2  -142000.991322  -142001.031624  -142001.031624  0.000847 -3.955056  0.257513
   scf:    3  -142001.052931  -142001.050552  -142001.050552  0.000733 -3.956719  0.001805
   scf:    4  -142001.050568  -142001.050562  -142001.050562  0.000038 -3.956710  0.000531

SCF Convergence by DM+H criterion
max |DM_out - DM_in|         :     0.0000376988
max |H_out - H_in|      (eV) :     0.0005314422
SCF cycle converged after 4 iterations

Using DM_out to compute the final energy and forces
No. of atoms with KB's overlaping orbs in proc 0. Max # of overlaps:     234     229
System symmetry is of type slab but no DFTD3.Periodic list was found. Attempting to guess symmetry for D3.
Could not guess the right amount of periodicity directions for D3.
Enabling periodicity on all directions.

siesta: E_KS(eV) =          -142001.0488

siesta: Atomic forces (eV/Ang):
   Tot    0.000002    0.000001   -0.007339
   Max    0.009130
   Res    0.002626    sqrt( Sum f_i^2 / 3N )
   Max    0.009130    constrained

Stress tensor Voigt[x,y,z,yz,xz,xy] (kbar):      -26.05      -26.05       -4.12        0.00        0.00        0.00
(Free)E + p*V (eV/cell)  -141468.9820
Target enthalpy (eV/cell)  -142001.0488

outcoor: Relaxed atomic coordinates (Ang):
    1.42051780    0.00176859   18.16147605   1       1  C
    5.68165247    0.00560711   18.18520258   1       2  C
    9.94245574    0.00690873   18.22449994   1       3  C
   14.20295285    0.00454683   18.25863054   1       4  C
   18.46340755   -0.00013894   18.26989050   1       5  C
   22.72365226   -0.00462380   18.25453379   1       6  C
   26.98393161   -0.00661812   18.21861985   1       7  C
   31.24437717   -0.00495396   18.18072617   1       8  C
   35.50538996   -0.00066715   18.16147583   1       9  C
    3.54985536    1.23406814   18.17130814   1      10  C
    7.81093109    1.23673575   18.20527348   1      11  C
   12.07192711    1.23615128   18.24425617   1      12  C
   16.33264016    1.23232394   18.26825355   1      13  C
   20.59288993    1.22749552   18.26676007   1      14  C
   24.85292080    1.22400101   18.24004216   1      15  C
   29.11304231    1.22408702   18.20149117   1      16  C
   33.37351946    1.22724147   18.17130721   1      17  C
   37.63488780    1.23200042   18.16633568   1      18  C
    5.67932365    2.46567796   18.18971330   1      19  C
    9.94082651    2.46671765   18.22811740   1      20  C
   14.20174068    2.46455210   18.26077230   1      21  C
   18.46219874    2.45991039   18.27247355   1      22  C
   22.72231158    2.45567082   18.25856287   1      23  C
   26.98197142    2.45395074   18.22512106   1      24  C
   31.24218128    2.45560811   18.18971318   1      25  C
   35.50285740    2.45970048   18.17107068   1      26  C
    3.54731509    3.69405862   18.18072674   1      27  C
    7.80923081    3.69649482   18.21219807   1      28  C
   12.07063856    3.69592174   18.24912072   1      29  C
   16.33170999    3.69231427   18.27248725   1      30  C
   20.59210193    3.68770243   18.27116834   1      31  C
   24.85171471    3.68465713   18.24720495   1      32  C
   29.11131007    3.68475191   18.21219827   1      33  C
   33.37150025    3.68766070   18.18520257   1      34  C
   37.63262182    3.69196097   18.18098599   1      35  C
    5.67736411    4.92532863   18.20149156   1      36  C
    9.93944000    4.92629234   18.23590428   1      37  C
   14.20094292    4.92433793   18.26632463   1      38  C
   18.46179638    4.92004682   18.27779534   1      39  C
   22.72181016    4.91601577   18.26544301   1      40  C
   26.98116865    4.91466690   18.23590421   1      41  C
   31.24067352    4.91610393   18.20527371   1      42  C
   35.50105557    4.91984148   18.18950576   1      43  C
   39.76263989    4.92359788   18.19755655   1      44  C
    7.80799555    6.15595665   18.22512120   1      45  C
   12.07014025    6.15536732   18.25688880   1      46  C
   16.33155656    6.15218677   18.27757632   1      47  C
   20.59190650    6.14797301   18.27720511   1      48  C
   24.85140751    6.14536937   18.25688844   1      49  C
   29.11053012    6.14565657   18.22811730   1      50  C
   33.37018795    6.14800319   18.20519705   1      51  C
   37.63104490    6.15173855   18.20154153   1      52  C
    5.67609688    7.38454511   18.21861997   1      53  C
    9.93894767    7.38545696   18.24720539   1      54  C
   14.20111914    7.38377762   18.27286514   1      55  C
   18.46230183    7.38004074   18.28298484   1      56  C
   22.72208426    7.37664704   18.27286589   1      57  C
   26.98110022    7.37552642   18.24912008   1      58  C
   31.23997399    7.37697229   18.22450053   1      59  C
   35.50009023    7.38007874   18.21230523   1      60  C
[...]
   28.29989915   28.88978649   21.77875419   1     854  C
   32.55105857   28.60273644   21.74290424   1     855  C
   36.80207829   28.31827108   21.72679619   1     856  C
   41.05288011   28.03368629   21.73711528   1     857  C
   45.30330395   27.74691347   21.76989985   1     858  C
   49.55358523   27.45656210   21.80803923   1     859  C
   53.80416649   27.16345838   21.83097857   1     860  C
   22.00803264   30.55403474   21.83097830   1     861  C
   26.25891094   30.26183113   21.80001187   1     862  C
   30.50990770   29.97286939   21.76019020   1     863  C
   34.76067512   29.68749992   21.73221991   1     864  C
   39.01153309   29.40326628   21.72997947   1     865  C
   43.26233322   29.11807047   21.75355595   1     866  C
   47.51295967   28.82947645   21.79245616   1     867  C
   51.76345498   28.53762709   21.82632762   1     868  C

siesta: Program's energy decomposition (eV):
siesta: Ebs     =    -46064.567170
siesta: Eions   =    244916.362311
siesta: Ena     =     54081.507310
siesta: Ekin    =     98651.994940
siesta: Enl     =     -5004.879727
siesta: Eso     =         0.000000
siesta: Edftu   =         0.000000
siesta: DEna    =      5684.511059
siesta: DUscf   =       288.990377
siesta: DUext   =         0.000000
siesta: Ex      =    -46298.972942
siesta: Ec      =     -4402.883405
siesta: Exc     =    -50701.856347
siesta: EbV     =         0.000000
siesta: eta*DQ  =         0.000000
siesta: Emadel  =         0.000000
siesta: Emeta   =         0.000000
siesta: Emolmec =         0.000000
siesta: Ekinion =         0.000000
siesta: Eharris =   -142001.050568
siesta: Etot    =   -142001.048755
siesta: FreeEng =   -142001.048755

siesta: Final energy (eV):
siesta:  Band Struct. =  -46064.567170
siesta:       Kinetic =   98651.994940
siesta:       Hartree = 2301094.501615
siesta:         Edftu =       0.000000
siesta:       Eso     =       0.000000
siesta:    Ext. field =       0.000000
siesta:         Exch. =  -46298.972942
siesta:         Corr. =   -4402.883405
siesta:     Bulk bias =       0.000000
siesta:   Exch.-corr. =  -50701.856347
siesta:  Ion-electron =-4691473.478310
siesta:       Ion-ion = 2200512.743403
siesta:       Ekinion =       0.000000
siesta: D3 dispersion =     -84.954055
siesta:         Total = -142001.048755
siesta:         Fermi =      -3.956710

siesta: Stress tensor (static) (eV/Ang**3):
siesta:    -0.016257    0.000002    0.000000
siesta:     0.000002   -0.016260    0.000000
siesta:     0.000000    0.000000   -0.002571

siesta: Cell volume =      45490.485415 Ang**3

siesta: Pressure (static):
siesta:                Solid            Molecule  Units
siesta:           0.00012739          0.00012726  Ry/Bohr**3
siesta:           0.01169622          0.01168406  eV/Ang**3
siesta:          18.73941157         18.71992822  kBar
(Free)E+ p_basis*V_orbitals  =     -141477.952052
(Free)Eharris+ p_basis*V_orbitals  =     -141477.953866

siesta: Electric dipole (a.u.)  =    0.000000   -0.000000    0.000037
siesta: Electric dipole (Debye) =    0.000000   -0.000000    0.000095

cite: Please see "Graphene.bib" for an exhaustive BiBTeX file.
cite: Please clearly indicate Siesta version in published work: 5.0.0-alpha-112-g6e4f53aee-dirty
cite: This calculation has made use of the following articles
cite: which are encouraged to be cited in a published work.
        Primary SIESTA paper
          DOI: www.doi.org/10.1088/0953-8984/14/11/302

>> End of run:  30-NOV-2024  22:11:36
Job completed