Runtime information:
* Directory : /n/holylabs/LABS/kaxiras_lab/axzhu/projects/AM207-final-project/N_4/DFT-structures
>> Start of run:   1-DEC-2024  14:24:53

reinit: Reading from standard input
reinit: Dumping input in INPUT_TMP.39287
************************** Dump of input data file ****************************
#	Basic Information	#
SystemName      Graphene
SystemLabel     Graphene
#	Structural Information		#
%include structure.fdf
#       DFT Parameters          #
SolutionMethod diagon           # Method of solving system. Can change to OrderN, transiesta, etc.
#Diag.Algorithm MRRR
#NumberOfEigenStates -20 # this will include first 10 conduction bands
XC.Functional   GGA
XC.Authors      PBE
DFTD3 true
Spin non-polarized
Mesh.Cutoff 300 Ry              # Cut off plane waves with kinetic energy higher than this.
MaxSCFIterations 300            # Max number of iterations in the SCF loop.
DM.UseSaveDM true
MinSCFIterations       3
SCF.DM.Tolerance       0.0001
SCF.Mixer.Weight       0.10
SCF.Mixer.History      12
SCF.Mix.First          true
#             Basis             #
#PAO.BasisSize   DZP
PAO.Basis < basis.fdf
#	k-points, Bands, DOS		#
%block kgrid_Monkhorst_Pack
   1  0  0  0.0
   0  1  0  0.0
   0  0  1  0.0
%endblock kgrid_Monkhorst_Pack
#BandLinesScale ReciprocalLatticeVectors
#%block BandLines
#1   0.6666666667  0.3333333333  0.0000000000  K
#10  0.0000000000  0.0000000000  0.0000000000  Gamma
#10  0.5000000000  0.0000000000  0.0000000000  M
#10  0.6666666667  0.3333333333  0.0000000000  K
#%endblock BandLines
# Local density of states (LDOS)
# %block LocalDensityOfStates
# EF 8.40 8.50 eV
# %endblock LocalDensityOfStates
#             Wavefunctions             #
#WaveFuncKPointsScale ReciprocalLatticeVectors
#%block WaveFuncKPoints
#0.666 0.333 0.000 from 4375 to 4378 # K wavefuncs 4375 to 4378
#0.000 0.000 0.000 from 4375 to 4378 # Gamma wavefuncs 4375 to 4378
#0.500 0.000 0.000 from 4375 to 4378 # M wavefuncs 4375 to 4378
#%endblock WaveFuncKPoints
#WriteDenchar T
#       Geometry Optimisation           #
MD.UseSaveXV true
MD.TypeOfRun           CG                  # Conjugate Gradient
MD.NumCGsteps          200                 # Max number of steps
MD.MaxForceTol         0.01    eV/Ang      # 10 meV/Ang
MD.VariableCell        false               # Don't relax cell
MD.MaxCGDispl          0.5 Bohr            # Maximum displacement of any atom
# Fix COM in Z direction only
%block Geometry.Constraints
 center all 0.0 0.0 1.0
%endblock Geometry.Constraints
************************** End of input data file *****************************

reinit: -----------------------------------------------------------------------
reinit: System Name: Graphene
reinit: -----------------------------------------------------------------------
reinit: System Label: Graphene
reinit: -----------------------------------------------------------------------

initatom: Reading input for the pseudopotentials and atomic orbitals ----------
Species number:   1 Atomic number:    6 Label: C

---- Processing specs for species: C
Ground state valence configuration:   2s02  2p02
Reading pseudopotential information in PSML from:
  C.psml
PSML file version: 1.1
GGA--PBE XC_GGA_X_PBE--XC_GGA_C_PBE pb
 Using ATOM defaults for log grid...
PSML uuid: 297821e0-be41-11e7-6802-e1ff7dfff095

---- Pseudopotential check for C

Pseudized shells:
2s( 2.00) rc: 1.20
2p( 2.00) rc: 1.26
Valence configuration for ps generation: 2s:2p: Total charge:   4.000000
For C, standard SIESTA heuristics set lmxkb to 3
 (one more than the basis l, including polarization orbitals).
Use PS.lmax or PS.KBprojectors blocks to override.
C pseudopotential only contains V_ls up to l=1 -- lmxkb reset.

<basis_specs>
C                    Z=   6    Mass=  12.011        Charge= 0.99941
Lmxo=2 Lmxkb= 1    BasisType=split      Semic=F
L=0  Nsemic=0  Cnfigmx=2
          i=1  nzeta=1  polorb=0  (2s)
            splnorm:   0.15000
               vcte:    132.57
               rinn:    4.5256
               qcoe:    0.0000
               qyuk:    0.0000
               qwid:   0.10000E-01
                rcs:    6.0009
            lambdas:    1.0000
L=1  Nsemic=0  Cnfigmx=2
          i=1  nzeta=1  polorb=0  (2p)
            splnorm:   0.15000
               vcte:    6.0639
               rinn:    6.0646
               qcoe:    0.0000
               qyuk:    0.0000
               qwid:   0.10000E-01
                rcs:    6.7108
            lambdas:    1.0000
L=2  Nsemic=0  Cnfigmx=3
          i=1  nzeta=1  polorb=0  (3d)
            splnorm:   0.15000
               vcte:    14.478
               rinn:    4.3208
               qcoe:    0.0000
               qyuk:    0.0000
               qwid:   0.10000E-01
                rcs:    6.2254
            lambdas:    1.0000
L=0  Nkbl=1  erefs: 0.17977+309
L=1  Nkbl=1  erefs: 0.17977+309
</basis_specs>

atom: Called for C                     (Z =   6)
NOTE: C pseudopotential has channels up to l= 1
NOTE: PAOs with higher l will be generated with V_local

read_vps: Pseudopotential generation method:
read_vps: ONCVPSP-3.Hamann's oncvpsp
Valence charge in pseudo generation:    4.00000

read_vps: Pseudopotential includes a core correction:
read_vps: Pseudo-core for xc-correction

xc_check: Exchange-correlation functional:
xc_check: GGA Perdew, Burke & Ernzerhof 1996
Got Vlocal (oncv-fit) from psml data
Choosing vlocal chloc cutoff:  4.139772
qtot up to nchloc:    3.99998844
atom: Maximum radius for chlocal:    4.13977
atom: Maximum radius for r*vlocal+2*Zval:    4.13977
Reading KB projs from C psml data
Using scalar-relativistic projectors in PSML file

PSML: Kleinman-Bylander projectors:
   l= 0   rc=  1.231096   Ekb= 12.963096
   l= 0   rc=  1.231096   Ekb=  0.771007
   l= 1   rc=  1.294237   Ekb= -8.399923
   l= 1   rc=  1.294237   Ekb= -1.755033

PSML: Total number of  Kleinman-Bylander projectors:   8
atom: -------------------------------------------------------------------------

atom: SANKEY-TYPE ORBITALS:

atom: basis set generated (by rescaling the valence charge)
atom: for a cation of charge   0.9994

SPLIT: Orbitals with angular momentum L= 0

SPLIT: Basis orbitals for state 2s

   izeta = 1
                 lambda =    1.000000
                     rc =    6.099293
                 energy =   -2.079355
                kinetic =    1.090115
    potential(screened) =   -3.169470
       potential(ionic) =   -5.727963

[...]

SPLIT: Basis orbitals for state 2p

   izeta = 1
                 lambda =    1.000000
                     rc =    6.740804
                 energy =   -1.441657
                kinetic =    3.222058
    potential(screened) =   -4.663715
       potential(ionic) =   -7.206130
*Note: V_local used for l= 2

** Using vlocal for PAOs with L= 2

SPLIT: Orbitals with angular momentum L= 2

SPLIT: Basis orbitals for state 3d

   izeta = 1
                 lambda =    1.000000
                     rc =    6.253707
                 energy =    0.017329
                kinetic =    1.197074
    potential(screened) =   -1.179745
       potential(ionic) =   -2.838380
atom: Total number of Sankey-type orbitals:  9

atm_pop: Valence configuration (for local Pseudopot. screening):
 2s( 2.00)
 2p( 2.00)
 3d( 0.00)
Vna: chval, zval:    4.00000   4.00000

Vna:  Cut-off radius for the neutral-atom potential:   6.740804
comcore: Pseudo-core radius Rcore=  1.682861

atom: _________________________________________________________________________

prinput: Basis input

PAO.BasisType split

%block ChemicalSpeciesLabel
    1    6 C                       # Species index, atomic number, species label
%endblock ChemicalSpeciesLabel

%block PAO.Basis                 # Define Basis set
# WARNING: This information might be incomplete!
C                     3   0.999            # Label, l-shells, ionic net charge
 n=2   0   1                         # n, l, Nzeta
   6.099
   1.000
 n=2   1   1                         # n, l, Nzeta
   6.741
   1.000
 n=3   2   1                         # n, l, Nzeta
   6.254
   1.000
%endblock PAO.Basis

prinput: ----------------------------------------------------------------------

Dumping basis to NetCDF file C.ion.nc
coor:   Atomic-coordinates input format  =     Cartesian coordinates
coor:                                          (in Angstroms)

siesta: WARNING: XV file not found

siesta: Atomic coordinates (Bohr) and species
siesta:      2.68394   0.00000  34.62923  1        1
siesta:     10.73577   0.00000  34.62923  1        2
siesta:     18.78760   0.00000  34.62923  1        3
siesta:     26.83943   0.00000  34.62923  1        4
siesta:      6.70986   2.32436  34.62923  1        5
siesta:     14.76169   2.32436  34.62923  1        6
siesta:     22.81352   2.32436  34.62923  1        7
siesta:     30.86535   2.32436  34.62923  1        8
siesta:     10.73577   4.64873  34.62923  1        9
siesta:     18.78760   4.64873  34.62923  1       10
siesta:     26.83943   4.64873  34.62923  1       11
siesta:      6.70986   6.97309  34.62923  1       12
siesta:     14.76169   6.97309  34.62923  1       13
siesta:     22.81352   6.97309  34.62923  1       14
siesta:     30.86535   6.97309  34.62923  1       15
siesta:     10.73577   9.29745  34.62923  1       16
siesta:     18.78760   9.29745  34.62923  1       17
siesta:     26.83943   9.29745  34.62923  1       18
siesta:     34.89126   9.29745  34.62923  1       19
siesta:     14.76169  11.62182  34.62923  1       20
siesta:     22.81352  11.62182  34.62923  1       21
siesta:     30.86535  11.62182  34.62923  1       22
siesta:     10.73577  13.94618  34.62923  1       23
siesta:     18.78760  13.94618  34.62923  1       24
siesta:     26.83943  13.94618  34.62923  1       25
siesta:     34.89126  13.94618  34.62923  1       26
siesta:     14.76169  16.27054  34.62923  1       27
siesta:     22.81352  16.27054  34.62923  1       28
siesta:     30.86535  16.27054  34.62923  1       29
siesta:     38.91718  16.27054  34.62923  1       30
siesta:     18.78760  18.59491  34.62923  1       31
siesta:     26.83943  18.59491  34.62923  1       32
siesta:     34.89126  18.59491  34.62923  1       33
siesta:     14.76169  20.91927  34.62923  1       34
siesta:     22.81352  20.91927  34.62923  1       35
siesta:     30.86535  20.91927  34.62923  1       36
siesta:     38.91718  20.91927  34.62923  1       37
siesta:      5.36789   0.00000  34.62923  1       38
siesta:     13.41972   0.00000  34.62923  1       39
siesta:     21.47155   0.00000  34.62923  1       40
siesta:     29.52338   0.00000  34.62923  1       41
siesta:      9.39380   2.32436  34.62923  1       42
siesta:     17.44563   2.32436  34.62923  1       43
siesta:     25.49746   2.32436  34.62923  1       44
siesta:      5.36789   4.64873  34.62923  1       45
siesta:     13.41972   4.64873  34.62923  1       46
siesta:     21.47155   4.64873  34.62923  1       47
siesta:     29.52338   4.64873  34.62923  1       48
siesta:      9.39380   6.97309  34.62923  1       49
siesta:     17.44563   6.97309  34.62923  1       50
siesta:     25.49746   6.97309  34.62923  1       51
siesta:     33.54929   6.97309  34.62923  1       52
siesta:     13.41972   9.29745  34.62923  1       53
[...]

************************ Begin: TS CHECKS AND WARNINGS ************************
************************ End: TS CHECKS AND WARNINGS **************************

                        Begin CG opt. move =      0

outcell: Unit cell vectors (Ang):
       14.912957   -1.230000    0.000000
        8.521690   12.300000    0.000000
        0.000000    0.000000   40.000000

outcell: Cell vector modules (Ang)   :   14.963596   14.963596   40.000000
outcell: Cell angles (23,13,12) (deg):     90.0000     90.0000     60.0000
outcell: Cell volume (Ang**3)        :   7756.4422
<dSpData1D:S at geom step 0
  <sparsity:sparsity for geom step 0
    nrows_g=1332 nrows=40 sparsity=.0219 nnzs=38795, refcount: 7>
  <dData1D:(new from dSpData1D) n=38795, refcount: 1>
refcount: 1>
new_DM -- step:     1
Initializing Density Matrix...

Attempting to read DM from file... Failed...
DM filled with atomic data:
<dSpData2D:DM initialized from atoms
  <sparsity:sparsity for geom step 0
    nrows_g=1332 nrows=40 sparsity=.0219 nnzs=38795, refcount: 8>
  <dData2D:DM n=38795 m=1, refcount: 1>
refcount: 1>
No. of atoms with KB's overlaping orbs in proc 0. Max # of overlaps:      93     234

InitMesh: MESH = 144 x 144 x 432 = 8957952
InitMesh: Mesh cutoff (required, used) =   300.000   322.366 Ry
New grid distribution [1]: sub = 2
New grid distribution [2]: sub = 2
New grid distribution [3]: sub = 2
Setting up quadratic distribution...

stepf: Fermi-Dirac step function

siesta: Program's energy decomposition (eV):
siesta: Ebs     =     -8671.950454
siesta: Eions   =     41759.932744
siesta: Ena     =      9221.148799
siesta: Ekin    =     16315.216377
siesta: Enl     =      -735.400907
siesta: Eso     =         0.000000
siesta: Edftu   =         0.000000
siesta: DEna    =      1248.747129
siesta: DUscf   =        79.527928
siesta: DUext   =         0.000000
siesta: Ex      =     -7803.366445
siesta: Ec      =      -752.955959
siesta: Exc     =     -8556.322403
siesta: EbV     =         0.000000
siesta: eta*DQ  =         0.000000
siesta: Emadel  =         0.000000
siesta: Emeta   =         0.000000
siesta: Emolmec =         0.000000
siesta: Ekinion =         0.000000
siesta: Eharris =    -24774.257959
siesta: Etot    =    -24187.015821
siesta: FreeEng =    -24187.015821

SCF Convergence by DM+H criterion
max |DM_out - DM_in|         :     0.0000063904
max |H_out - H_in|      (eV) :     0.0000824959
SCF cycle converged after 10 iterations

Using DM_out to compute the final energy and forces
No. of atoms with KB's overlaping orbs in proc 0. Max # of overlaps:      93     234
System symmetry is of type slab but no DFTD3.Periodic list was found. Attempting to guess symmetry for D3.
Could not guess the right amount of periodicity directions for D3.
Enabling periodicity on all directions.

siesta: E_KS(eV) =           -24213.9590

siesta: E_KS - E_eggbox =    -24213.9590

siesta: Atomic forces (eV/Ang):
   Tot    0.000000   -0.000000   -0.000000
   Max    0.047418
   Res    0.019986    sqrt( Sum f_i^2 / 3N )
   Max    0.047418    constrained

Stress tensor Voigt[x,y,z,yz,xz,xy] (kbar):      -24.78      -24.78       -5.71       -0.00       -0.00        0.00
(Free)E + p*V (eV/cell)   -24124.7662
Target enthalpy (eV/cell)   -24213.9590

[...]

outcell: Cell vector modules (Ang)   :   14.963596   14.963596   40.000000
outcell: Cell angles (23,13,12) (deg):     90.0000     90.0000     60.0000
outcell: Cell volume (Ang**3)        :   7756.4422
Gamma-point calculation with multiply-connected orbital pairs
Folding of H and S implicitly performed
<dSpData1D:S at geom step 1
  <sparsity:sparsity for geom step 1
    nrows_g=1332 nrows=40 sparsity=.0221 nnzs=39169, refcount: 7>
  <dData1D:(new from dSpData1D) n=39169, refcount: 1>
refcount: 1>
new_DM -- step:     2
Re-using DM from previous geometries...
Number of DMs in history: 1
 DM extrapolation coefficients:
1   1.00000
New DM after history re-use:
<dSpData2D:SpM extrapolated using coords
  <sparsity:sparsity for geom step 1
    nrows_g=1332 nrows=40 sparsity=.0221 nnzs=39169, refcount: 9>
  <dData2D:(temp array for extrapolation) n=39169 m=1, refcount: 1>
refcount: 1>
No. of atoms with KB's overlaping orbs in proc 0. Max # of overlaps:      96     235

[...]

        iscf     Eharris(eV)        E_KS(eV)     FreeEng(eV)     dDmax    Ef(eV) dHmax(eV)
   scf:    1   -24213.785641   -24213.524607   -24213.524607  0.023062 -4.456855  0.371073
   scf:    2   -24211.759421   -24212.986468   -24212.986468  0.017182 -4.507969  1.721789
   scf:    3   -24213.646024   -24213.552652   -24213.552652  0.014169 -4.459462  0.034794
   scf:    4   -24213.557471   -24213.555305   -24213.555305  0.000634 -4.459470  0.011044
   scf:    5   -24213.555737   -24213.555556   -24213.555556  0.000235 -4.460338  0.005924
   scf:    6   -24213.555558   -24213.555565   -24213.555565  0.000087 -4.460621  0.004997
   scf:    7   -24213.555575   -24213.555573   -24213.555573  0.000049 -4.460663  0.000457

[...]

outcell: Cell vector modules (Ang)   :   14.963596   14.963596   40.000000
outcell: Cell angles (23,13,12) (deg):     90.0000     90.0000     60.0000
outcell: Cell volume (Ang**3)        :   7756.4422
<dSpData1D:S at geom step 2
  <sparsity:sparsity for geom step 2
    nrows_g=1332 nrows=40 sparsity=.0219 nnzs=38795, refcount: 7>
  <dData1D:(new from dSpData1D) n=38795, refcount: 1>
refcount: 1>
new_DM -- step:     3
Re-using DM from previous geometries...
Number of DMs in history: 1
 DM extrapolation coefficients:
1   1.00000
New DM after history re-use:
<dSpData2D:SpM extrapolated using coords
  <sparsity:sparsity for geom step 2
    nrows_g=1332 nrows=40 sparsity=.0219 nnzs=38795, refcount: 9>
  <dData2D:(temp array for extrapolation) n=38795 m=1, refcount: 1>
refcount: 1>
No. of atoms with KB's overlaping orbs in proc 0. Max # of overlaps:      93     234

[...]

cgvc: Finished line minimization    1.  Mean atomic displacement =    0.0036

[...]

outcell: Cell vector modules (Ang)   :   14.963596   14.963596   40.000000
outcell: Cell angles (23,13,12) (deg):     90.0000     90.0000     60.0000
outcell: Cell volume (Ang**3)        :   7756.4422
Gamma-point calculation with multiply-connected orbital pairs
Folding of H and S implicitly performed
<dSpData1D:S at geom step 21
  <sparsity:sparsity for geom step 21
    nrows_g=1332 nrows=40 sparsity=.0213 nnzs=37805, refcount: 7>
  <dData1D:(new from dSpData1D) n=37805, refcount: 1>
refcount: 1>
new_DM -- step:    22
Re-using DM from previous geometries...
Number of DMs in history: 1
 DM extrapolation coefficients:
1   1.00000
New DM after history re-use:
<dSpData2D:SpM extrapolated using coords
  <sparsity:sparsity for geom step 21
    nrows_g=1332 nrows=40 sparsity=.0213 nnzs=37805, refcount: 9>
  <dData2D:(temp array for extrapolation) n=37805 m=1, refcount: 1>
refcount: 1>
No. of atoms with KB's overlaping orbs in proc 0. Max # of overlaps:      90     228

[...]

cgvc: Finished line minimization    9.  Mean atomic displacement =    0.0009

[...]

                        Begin CG opt. move =     28

outcell: Unit cell vectors (Ang):
       14.912957   -1.230000    0.000000
        8.521690   12.300000    0.000000
        0.000000    0.000000   40.000000

outcell: Cell vector modules (Ang)   :   14.963596   14.963596   40.000000
outcell: Cell angles (23,13,12) (deg):     90.0000     90.0000     60.0000
outcell: Cell volume (Ang**3)        :   7756.4422
<dSpData1D:S at geom step 28
  <sparsity:sparsity for geom step 28
    nrows_g=1332 nrows=40 sparsity=.0213 nnzs=37815, refcount: 7>
  <dData1D:(new from dSpData1D) n=37815, refcount: 1>
refcount: 1>
new_DM -- step:    29
Re-using DM from previous geometries...
Number of DMs in history: 1
 DM extrapolation coefficients:
1   1.00000
New DM after history re-use:
<dSpData2D:SpM extrapolated using coords
  <sparsity:sparsity for geom step 28
    nrows_g=1332 nrows=40 sparsity=.0213 nnzs=37815, refcount: 9>
  <dData2D:(temp array for extrapolation) n=37815 m=1, refcount: 1>
refcount: 1>
No. of atoms with KB's overlaping orbs in proc 0. Max # of overlaps:      91     225

InitMesh: MESH = 144 x 144 x 432 = 8957952
InitMesh: Mesh cutoff (required, used) =   300.000   322.366 Ry
New grid distribution [1]: sub = 2
New grid distribution [2]: sub = 2
New grid distribution [3]: sub = 2
Setting up quadratic distribution...

        iscf     Eharris(eV)        E_KS(eV)     FreeEng(eV)     dDmax    Ef(eV) dHmax(eV)
   scf:    1   -24214.153349   -24214.154851   -24214.154851  0.000306 -3.762012  0.027577
   scf:    2   -24214.145212   -24214.151942   -24214.151942  0.001523 -4.714530  0.121769
   scf:    3   -24214.155569   -24214.155031   -24214.155031  0.001214 -3.762183  0.002392
   scf:    4   -24214.155038   -24214.155036   -24214.155036  0.000071 -3.762191  0.000503

SCF Convergence by DM+H criterion
max |DM_out - DM_in|         :     0.0000711699
max |H_out - H_in|      (eV) :     0.0005031982
SCF cycle converged after 4 iterations

Using DM_out to compute the final energy and forces
No. of atoms with KB's overlaping orbs in proc 0. Max # of overlaps:      91     225
System symmetry is of type slab but no DFTD3.Periodic list was found. Attempting to guess symmetry for D3.
Could not guess the right amount of periodicity directions for D3.
Enabling periodicity on all directions.

siesta: E_KS(eV) =           -24214.1558

siesta: Atomic forces (eV/Ang):
   Tot   -0.000000   -0.000001   -0.000000
   Max    0.007684
   Res    0.002522    sqrt( Sum f_i^2 / 3N )
   Max    0.007684    constrained

Stress tensor Voigt[x,y,z,yz,xz,xy] (kbar):      -25.07      -25.08       -4.14       -0.00       -0.00        0.01
(Free)E + p*V (eV/cell)   -24126.5482
Target enthalpy (eV/cell)   -24214.1558

outcoor: Relaxed atomic coordinates (Ang):
    1.42046597    0.00045260   18.17720403   1       1  C
    5.68114715    0.00063177   18.23862740   1       2  C
    9.94179012   -0.00051877   18.23153714   1       3  C
   14.20233021   -0.00005504   18.17720457   1       4  C
    3.55073098    1.23084746   18.21037443   1       5  C
    7.81134743    1.23007551   18.25215532   1       6  C
   12.07164309    1.22961144   18.21037515   1       7  C
   16.33269912    1.23052643   18.19543513   1       8  C
    5.68095840    2.46052705   18.24580459   1       9  C
    9.94159481    2.45960328   18.24580491   1      10  C
   14.20199568    2.46000250   18.21047257   1      11  C
    3.55033310    3.69041876   18.23153716   1      12  C
    7.81154431    3.69000499   18.25819805   1      13  C
   12.07183181    3.68971565   18.23862890   1      14  C
   16.33253272    3.69024343   18.23202411   1      15  C
    5.68127947    4.92013958   18.25215499   1      16  C
    9.94200351    4.91979959   18.25215610   1      17  C
   14.20217607    4.92005791   18.24514756   1      18  C
   18.46350803    4.91984107   18.24876995   1      19  C
    7.81207811    6.14988488   18.24580441   1      20  C
   12.07232206    6.15021496   18.24877167   1      21  C
   16.33292373    6.14984868   18.25500583   1      22  C
    5.68165015    7.37966853   18.23862726   1      23  C
    9.94250857    7.38011541   18.23153831   1      24  C
   14.20283102    7.38035218   18.25500653   1      25  C
   18.46392767    7.37942946   18.24514681   1      26  C
    7.81225804    8.60955571   18.21037509   1      27  C
   12.07294722    8.61049279   18.23202449   1      28  C
   16.33352458    8.60981373   18.25500625   1      29  C
   20.59449036    8.60929934   18.21047171   1      30  C
    9.94268481    9.84020785   18.19543538   1      31  C
   14.20317340    9.84052808   18.24514702   1      32  C
   18.46379978    9.83927797   18.23202405   1      33  C
    7.81183677   11.06961769   18.17720430   1      34  C
   12.07279553   11.07071379   18.21047117   1      35  C
   16.33345014   11.06995830   18.24877014   1      36  C
   20.59389448   11.06928154   18.19543365   1      37  C
    2.84075289    0.00071846   18.19543365   1      38  C
    7.10119728    0.00004170   18.24877014   1      39  C
   11.36185189   -0.00071379   18.21047117   1      40  C
   15.62281062    0.00038236   18.17720430   1      41  C
    4.97084766    1.23072203   18.23202405   1      42  C
    9.23147403    1.22947193   18.24514702   1      43  C
   13.49196263    1.22979217   18.19543538   1      44  C
    2.84015708    2.46070066   18.21047171   1      45  C
    7.10112285    2.46018629   18.25500626   1      46  C
   11.36170022    2.45950724   18.23202448   1      47  C
   15.62238939    2.46044432   18.21037509   1      48  C
    4.97071977    3.69057055   18.24514681   1      49  C
    9.23181641    3.68964783   18.25500654   1      50  C
   13.49213886    3.68988460   18.23153830   1      51  C
   17.75299728    3.69033147   18.23862726   1      52  C
    7.10172371    4.92015131   18.25500584   1      53  C
   11.36232538    4.91978501   18.24877167   1      54  C
   15.62256932    4.92011511   18.24580440   1      55  C
    4.97113939    6.15015892   18.24876995   1      56  C
    9.23247136    6.14994207   18.24514757   1      57  C
   13.49264394    6.15020040   18.25215610   1      58  C
   17.75336797    6.14986041   18.25215499   1      59  C
    7.10211472    7.37975657   18.23202411   1      60  C
[...]
   14.72130865    6.28276042   21.74499345   1     134  C
   18.92439533    5.58505434   21.75122987   1     135  C
    8.61687781    8.54318022   21.78962485   1     136  C
   12.82055884    7.84487385   21.75485234   1     137  C
   17.02422437    7.14763611   21.74499376   1     138  C
   10.92029490    9.40720218   21.78952740   1     139  C
   15.12376323    8.70958223   21.74499418   1     140  C
   19.32687648    8.01218693   21.76797598   1     141  C
    9.02035641   10.96992953   21.82279545   1     142  C
   13.22371324   10.27146190   21.76797587   1     143  C
   17.42696813    9.57462194   21.75485324   1     144  C
   21.62983048    8.87625583   21.80456638   1     145  C
   11.32393093   11.83384316   21.80456488   1     146  C
   15.52691302   11.13646880   21.75123008   1     147  C
   19.73011614   10.43913715   21.78952832   1     148  C

siesta: Program's energy decomposition (eV):
siesta: Ebs     =     -7857.793411
siesta: Eions   =     41759.932744
siesta: Ena     =      9221.346708
siesta: Ekin    =     16817.721601
siesta: Enl     =      -853.250339
siesta: Eso     =         0.000000
siesta: Edftu   =         0.000000
siesta: DEna    =       969.598016
siesta: DUscf   =        49.331305
siesta: DUext   =         0.000000
siesta: Ex      =     -7894.005653
siesta: Ec      =      -750.566987
siesta: Exc     =     -8644.572640
siesta: EbV     =         0.000000
siesta: eta*DQ  =         0.000000
siesta: Emadel  =         0.000000
siesta: Emeta   =         0.000000
siesta: Emolmec =         0.000000
siesta: Ekinion =         0.000000
siesta: Eharris =    -24214.155038
siesta: Etot    =    -24214.155839
siesta: FreeEng =    -24214.155839

siesta: Final energy (eV):
siesta:  Band Struct. =   -7857.793411
siesta:       Kinetic =   16817.721601
siesta:       Hartree =  391320.167089
siesta:         Edftu =       0.000000
siesta:       Eso     =       0.000000
siesta:    Ext. field =       0.000000
siesta:         Exch. =   -7894.005653
siesta:         Corr. =    -750.566987
siesta:     Bulk bias =       0.000000
siesta:   Exch.-corr. =   -8644.572640
siesta:  Ion-electron = -797864.922246
siesta:       Ion-ion =  374171.848102
siesta:       Ekinion =       0.000000
siesta: D3 dispersion =     -14.397745
siesta:         Total =  -24214.155839
siesta:         Fermi =      -3.762191

siesta: Stress tensor (static) (eV/Ang**3):
siesta:    -0.015646    0.000003   -0.000000
siesta:     0.000003   -0.015652   -0.000000
siesta:    -0.000000   -0.000000   -0.002586

siesta: Cell volume =       7756.442214 Ang**3

siesta: Pressure (static):
siesta:                Solid            Molecule  Units
siesta:           0.00012302          0.00012273  Ry/Bohr**3
siesta:           0.01129482          0.01126870  eV/Ang**3
siesta:          18.09629616         18.05444854  kBar
(Free)E+ p_basis*V_orbitals  =      -24124.964235
(Free)Eharris+ p_basis*V_orbitals  =      -24124.963435

siesta: Electric dipole (a.u.)  =    0.000000    0.000000   -0.000000
siesta: Electric dipole (Debye) =    0.000000    0.000000   -0.000000

cite: Please see "Graphene.bib" for an exhaustive BiBTeX file.
cite: Please clearly indicate Siesta version in published work: 5.0.0-alpha-112-g6e4f53aee-dirty
cite: This calculation has made use of the following articles
cite: which are encouraged to be cited in a published work.
        Primary SIESTA paper
          DOI: www.doi.org/10.1088/0953-8984/14/11/302

>> End of run:   1-DEC-2024  14:31:49
Job completed