Runtime information:
* Directory : /n/holylabs/LABS/kaxiras_lab/axzhu/projects/AM207-final-project/N_4/z-only
>> Start of run:   1-DEC-2024  14:32:48

reinit: Reading from standard input
reinit: Dumping input in INPUT_TMP.89278
************************** Dump of input data file ****************************
#	Basic Information	#
SystemName      Graphene
SystemLabel     Graphene
#	Structural Information		#
%include structure.fdf
#       DFT Parameters          #
SolutionMethod diagon           # Method of solving system. Can change to OrderN, transiesta, etc.
#Diag.Algorithm MRRR
#NumberOfEigenStates -20 # this will include first 10 conduction bands
XC.Functional   GGA
XC.Authors      PBE
DFTD3 true
Spin non-polarized
Mesh.Cutoff 300 Ry              # Cut off plane waves with kinetic energy higher than this.
MaxSCFIterations 300            # Max number of iterations in the SCF loop.
DM.UseSaveDM true
MinSCFIterations       3
SCF.DM.Tolerance       0.0001
SCF.Mixer.Weight       0.10
SCF.Mixer.History      12
SCF.Mix.First          true
#             Basis             #
#PAO.BasisSize   DZP
PAO.Basis < basis.fdf
#	k-points, Bands, DOS		#
%block kgrid_Monkhorst_Pack
   1  0  0  0.0
   0  1  0  0.0
   0  0  1  0.0
%endblock kgrid_Monkhorst_Pack
#BandLinesScale ReciprocalLatticeVectors
#%block BandLines
#1   0.6666666667  0.3333333333  0.0000000000  K
#10  0.0000000000  0.0000000000  0.0000000000  Gamma
#10  0.5000000000  0.0000000000  0.0000000000  M
#10  0.6666666667  0.3333333333  0.0000000000  K
#%endblock BandLines
# Local density of states (LDOS)
# %block LocalDensityOfStates
# EF 8.40 8.50 eV
# %endblock LocalDensityOfStates
#             Wavefunctions             #
#WaveFuncKPointsScale ReciprocalLatticeVectors
#%block WaveFuncKPoints
#0.666 0.333 0.000 from 4375 to 4378 # K wavefuncs 4375 to 4378
#0.000 0.000 0.000 from 4375 to 4378 # Gamma wavefuncs 4375 to 4378
#0.500 0.000 0.000 from 4375 to 4378 # M wavefuncs 4375 to 4378
#%endblock WaveFuncKPoints
#WriteDenchar T
#       Geometry Optimisation           #
MD.UseSaveXV true
MD.TypeOfRun           CG                  # Conjugate Gradient
MD.NumCGsteps          200                 # Max number of steps
MD.MaxForceTol         0.01    eV/Ang      # 10 meV/Ang
MD.VariableCell        false               # Don't relax cell
MD.MaxCGDispl          0.5 Bohr            # Maximum displacement of any atom
# Fix COM in Z direction only
%block Geometry.Constraints
 center all 0.0 0.0 1.0
%endblock Geometry.Constraints
************************** End of input data file *****************************

reinit: -----------------------------------------------------------------------
reinit: System Name: Graphene
reinit: -----------------------------------------------------------------------
reinit: System Label: Graphene
reinit: -----------------------------------------------------------------------

initatom: Reading input for the pseudopotentials and atomic orbitals ----------
Species number:   1 Atomic number:    6 Label: C

---- Processing specs for species: C
Ground state valence configuration:   2s02  2p02
Reading pseudopotential information in PSML from:
  C.psml
PSML file version: 1.1
GGA--PBE XC_GGA_X_PBE--XC_GGA_C_PBE pb
 Using ATOM defaults for log grid...
PSML uuid: 297821e0-be41-11e7-6802-e1ff7dfff095

---- Pseudopotential check for C

Pseudized shells:
2s( 2.00) rc: 1.20
2p( 2.00) rc: 1.26
Valence configuration for ps generation: 2s:2p: Total charge:   4.000000
For C, standard SIESTA heuristics set lmxkb to 3
 (one more than the basis l, including polarization orbitals).
Use PS.lmax or PS.KBprojectors blocks to override.
C pseudopotential only contains V_ls up to l=1 -- lmxkb reset.

<basis_specs>
C                    Z=   6    Mass=  12.011        Charge= 0.99941
Lmxo=2 Lmxkb= 1    BasisType=split      Semic=F
L=0  Nsemic=0  Cnfigmx=2
          i=1  nzeta=1  polorb=0  (2s)
            splnorm:   0.15000
               vcte:    132.57
               rinn:    4.5256
               qcoe:    0.0000
               qyuk:    0.0000
               qwid:   0.10000E-01
                rcs:    6.0009
            lambdas:    1.0000
L=1  Nsemic=0  Cnfigmx=2
          i=1  nzeta=1  polorb=0  (2p)
            splnorm:   0.15000
               vcte:    6.0639
               rinn:    6.0646
               qcoe:    0.0000
               qyuk:    0.0000
               qwid:   0.10000E-01
                rcs:    6.7108
            lambdas:    1.0000
L=2  Nsemic=0  Cnfigmx=3
          i=1  nzeta=1  polorb=0  (3d)
            splnorm:   0.15000
               vcte:    14.478
               rinn:    4.3208
               qcoe:    0.0000
               qyuk:    0.0000
               qwid:   0.10000E-01
                rcs:    6.2254
            lambdas:    1.0000
L=0  Nkbl=1  erefs: 0.17977+309
L=1  Nkbl=1  erefs: 0.17977+309
</basis_specs>

atom: Called for C                     (Z =   6)
NOTE: C pseudopotential has channels up to l= 1
NOTE: PAOs with higher l will be generated with V_local

read_vps: Pseudopotential generation method:
read_vps: ONCVPSP-3.Hamann's oncvpsp
Valence charge in pseudo generation:    4.00000

read_vps: Pseudopotential includes a core correction:
read_vps: Pseudo-core for xc-correction

xc_check: Exchange-correlation functional:
xc_check: GGA Perdew, Burke & Ernzerhof 1996
Got Vlocal (oncv-fit) from psml data
Choosing vlocal chloc cutoff:  4.139772
qtot up to nchloc:    3.99998844
atom: Maximum radius for chlocal:    4.13977
atom: Maximum radius for r*vlocal+2*Zval:    4.13977
Reading KB projs from C psml data
Using scalar-relativistic projectors in PSML file

PSML: Kleinman-Bylander projectors:
   l= 0   rc=  1.231096   Ekb= 12.963096
   l= 0   rc=  1.231096   Ekb=  0.771007
   l= 1   rc=  1.294237   Ekb= -8.399923
   l= 1   rc=  1.294237   Ekb= -1.755033

PSML: Total number of  Kleinman-Bylander projectors:   8
atom: -------------------------------------------------------------------------

atom: SANKEY-TYPE ORBITALS:

atom: basis set generated (by rescaling the valence charge)
atom: for a cation of charge   0.9994

SPLIT: Orbitals with angular momentum L= 0

SPLIT: Basis orbitals for state 2s

   izeta = 1
                 lambda =    1.000000
                     rc =    6.099293
                 energy =   -2.079355
                kinetic =    1.090115
    potential(screened) =   -3.169470
       potential(ionic) =   -5.727963

[...]

SPLIT: Basis orbitals for state 2p

   izeta = 1
                 lambda =    1.000000
                     rc =    6.740804
                 energy =   -1.441657
                kinetic =    3.222058
    potential(screened) =   -4.663715
       potential(ionic) =   -7.206130
*Note: V_local used for l= 2

** Using vlocal for PAOs with L= 2

SPLIT: Orbitals with angular momentum L= 2

SPLIT: Basis orbitals for state 3d

   izeta = 1
                 lambda =    1.000000
                     rc =    6.253707
                 energy =    0.017329
                kinetic =    1.197074
    potential(screened) =   -1.179745
       potential(ionic) =   -2.838380
atom: Total number of Sankey-type orbitals:  9

atm_pop: Valence configuration (for local Pseudopot. screening):
 2s( 2.00)
 2p( 2.00)
 3d( 0.00)
Vna: chval, zval:    4.00000   4.00000

Vna:  Cut-off radius for the neutral-atom potential:   6.740804
comcore: Pseudo-core radius Rcore=  1.682861

atom: _________________________________________________________________________

prinput: Basis input

PAO.BasisType split

%block ChemicalSpeciesLabel
    1    6 C                       # Species index, atomic number, species label
%endblock ChemicalSpeciesLabel

%block PAO.Basis                 # Define Basis set
# WARNING: This information might be incomplete!
C                     3   0.999            # Label, l-shells, ionic net charge
 n=2   0   1                         # n, l, Nzeta
   6.099
   1.000
 n=2   1   1                         # n, l, Nzeta
   6.741
   1.000
 n=3   2   1                         # n, l, Nzeta
   6.254
   1.000
%endblock PAO.Basis

prinput: ----------------------------------------------------------------------

Dumping basis to NetCDF file C.ion.nc
coor:   Atomic-coordinates input format  =     Cartesian coordinates
coor:                                          (in Angstroms)

ioxv: Reading coordinates and velocities from file
! Info in XV file prevails over previous structure input

siesta: Atomic coordinates (Bohr) and species
siesta:      2.68399   0.00064  34.55108  1        1
siesta:     10.73650   0.00064  34.55309  1        2
siesta:     18.78803  -0.00055  34.55275  1        3
siesta:     26.83885  -0.00026  34.55108  1        4
siesta:      6.70988   2.32498  34.55208  1        5
siesta:     14.76219   2.32436  34.55330  1        6
siesta:     22.81297   2.32409  34.55208  1        7
siesta:     30.86440   2.32461  34.55168  1        8
siesta:     10.73586   4.64889  34.55306  1        9
siesta:     18.78742   4.64873  34.55306  1       10
siesta:     26.83812   4.64878  34.55227  1       11
siesta:      6.70915   6.97300  34.55275  1       12
siesta:     14.76168   6.97310  34.55338  1       13
siesta:     22.81259   6.97341  34.55309  1       14
siesta:     30.86409   6.97294  34.55301  1       15
siesta:     10.73550   9.29702  34.55330  1       16
siesta:     18.78735   9.29791  34.55330  1       17
siesta:     26.83841   9.29778  34.55351  1       18
siesta:     34.89071   9.29668  34.55347  1       19
siesta:     14.76177  11.62167  34.55306  1       20
siesta:     22.81311  11.62268  34.55347  1       21
siesta:     30.86485  11.62151  34.55383  1       22
siesta:     10.73595  13.94523  34.55309  1       23
siesta:     18.78786  13.94684  34.55275  1       24
siesta:     26.83940  13.94677  34.55383  1       25
siesta:     34.89149  13.94514  34.55351  1       26
siesta:     14.76220  16.27022  34.55208  1       27
siesta:     22.81400  16.27171  34.55301  1       28
siesta:     30.86586  16.27028  34.55383  1       29
siesta:     38.91779  16.26939  34.55227  1       30
siesta:     18.78827  18.59560  34.55168  1       31
siesta:     26.84022  18.59563  34.55351  1       32
siesta:     34.89201  18.59391  34.55301  1       33
siesta:     14.76220  20.91891  34.55108  1       34
siesta:     22.81421  20.92039  34.55227  1       35
siesta:     30.86629  20.91919  34.55347  1       36
siesta:     38.91743  20.91835  34.55168  1       37
siesta:      5.36763   0.00092  34.55168  1       38
siesta:     13.41878   0.00007  34.55347  1       39
siesta:     21.47086  -0.00112  34.55227  1       40
siesta:     29.52286   0.00036  34.55108  1       41
siesta:      9.39305   2.32536  34.55301  1       42
siesta:     17.44485   2.32363  34.55351  1       43
siesta:     25.49680   2.32366  34.55168  1       44
siesta:      5.36728   4.64988  34.55227  1       45
siesta:     13.41920   4.64899  34.55383  1       46
siesta:     21.47106   4.64756  34.55301  1       47
siesta:     29.52287   4.64905  34.55208  1       48
siesta:      9.39358   6.97413  34.55351  1       49
siesta:     17.44567   6.97250  34.55383  1       50
siesta:     25.49720   6.97242  34.55275  1       51
[...]
        iscf     Eharris(eV)        E_KS(eV)     FreeEng(eV)     dDmax    Ef(eV) dHmax(eV)
   scf:    1   -24214.108093   -24214.098653   -24214.098653  0.000116 -4.492999  0.003848
   scf:    2   -24214.098431   -24214.098586   -24214.098586  0.000141 -4.492378  0.018109
   scf:    3   -24214.098669   -24214.098657   -24214.098657  0.000115 -4.492876  0.000270
   scf:    4   -24214.098657   -24214.098657   -24214.098657  0.000004 -4.492852  0.000086

SCF Convergence by DM+H criterion
max |DM_out - DM_in|         :     0.0000042024
max |H_out - H_in|      (eV) :     0.0000863433
SCF cycle converged after 4 iterations

Using DM_out to compute the final energy and forces
No. of atoms with KB's overlaping orbs in proc 0. Max # of overlaps:      93     231
System symmetry is of type slab but no DFTD3.Periodic list was found. Attempting to guess symmetry for D3.
Could not guess the right amount of periodicity directions for D3.
Enabling periodicity on all directions.

siesta: E_KS(eV) =           -24214.0955

siesta: Atomic forces (eV/Ang):
   Tot    0.000000    0.000000    0.001121
   Max    0.038801
   Res    0.017233    sqrt( Sum f_i^2 / 3N )
   Max    0.038801    constrained

Stress tensor Voigt[x,y,z,yz,xz,xy] (kbar):      -24.95      -24.96       -4.94        0.00       -0.00        0.00
(Free)E + p*V (eV/cell)   -24125.5746
Target enthalpy (eV/cell)   -24214.0955

[...]

outcell: Cell vector modules (Ang)   :   14.963596   14.963596   40.000000
outcell: Cell angles (23,13,12) (deg):     90.0000     90.0000     60.0000
outcell: Cell volume (Ang**3)        :   7756.4422
<dSpData1D:S at geom step 4
  <sparsity:sparsity for geom step 4
    nrows_g=1332 nrows=40 sparsity=.0216 nnzs=38404, refcount: 7>
  <dData1D:(new from dSpData1D) n=38404, refcount: 1>
refcount: 1>
new_DM -- step:     5
Re-using DM from previous geometries...
Number of DMs in history: 1
 DM extrapolation coefficients:
1   1.00000
New DM after history re-use:
<dSpData2D:SpM extrapolated using coords
  <sparsity:sparsity for geom step 4
    nrows_g=1332 nrows=40 sparsity=.0216 nnzs=38404, refcount: 9>
  <dData2D:(temp array for extrapolation) n=38404 m=1, refcount: 1>
refcount: 1>
No. of atoms with KB's overlaping orbs in proc 0. Max # of overlaps:      93     231

InitMesh: MESH = 144 x 144 x 432 = 8957952
InitMesh: Mesh cutoff (required, used) =   300.000   322.366 Ry
New grid distribution [1]: sub = 2
New grid distribution [2]: sub = 2
New grid distribution [3]: sub = 2
Setting up quadratic distribution...

        iscf     Eharris(eV)        E_KS(eV)     FreeEng(eV)     dDmax    Ef(eV) dHmax(eV)
   scf:    1   -24214.117827   -24214.102851   -24214.102851  0.000185 -4.498662  0.001092
   scf:    2   -24214.102835   -24214.102847   -24214.102847  0.000067 -4.498516  0.003785
   scf:    3   -24214.102854   -24214.102853   -24214.102853  0.000050 -4.498627  0.000374

[...]

cgvc: Finished line minimization    2.  Mean atomic displacement =    0.0315

[...]

cgvc: Finished line minimization    9.  Mean atomic displacement =    0.0013

[...]

                        Begin CG opt. move =     29

outcell: Unit cell vectors (Ang):
       14.912957   -1.230000    0.000000
        8.521690   12.300000    0.000000
        0.000000    0.000000   40.000000

outcell: Cell vector modules (Ang)   :   14.963596   14.963596   40.000000
outcell: Cell angles (23,13,12) (deg):     90.0000     90.0000     60.0000
outcell: Cell volume (Ang**3)        :   7756.4422
<dSpData1D:S at geom step 29
  <sparsity:sparsity for geom step 29
    nrows_g=1332 nrows=40 sparsity=.0213 nnzs=37748, refcount: 7>
  <dData1D:(new from dSpData1D) n=37748, refcount: 1>
refcount: 1>
new_DM -- step:    30
Re-using DM from previous geometries...
Number of DMs in history: 1
 DM extrapolation coefficients:
1   1.00000
New DM after history re-use:
<dSpData2D:SpM extrapolated using coords
  <sparsity:sparsity for geom step 29
    nrows_g=1332 nrows=40 sparsity=.0213 nnzs=37748, refcount: 9>
  <dData2D:(temp array for extrapolation) n=37748 m=1, refcount: 1>
refcount: 1>
No. of atoms with KB's overlaping orbs in proc 0. Max # of overlaps:      90     225

InitMesh: MESH = 144 x 144 x 432 = 8957952
InitMesh: Mesh cutoff (required, used) =   300.000   322.366 Ry
New grid distribution [1]: sub = 2
New grid distribution [2]: sub = 2
New grid distribution [3]: sub = 2
Setting up quadratic distribution...

        iscf     Eharris(eV)        E_KS(eV)     FreeEng(eV)     dDmax    Ef(eV) dHmax(eV)
   scf:    1   -24214.150918   -24214.154194   -24214.154194  0.000479 -3.778120  0.039335
   scf:    2   -24214.128957   -24214.146527   -24214.146527  0.001838 -3.780013  0.183768
   scf:    3   -24214.156035   -24214.154612   -24214.154612  0.001482 -3.778391  0.002365
   scf:    4   -24214.154622   -24214.154619   -24214.154619  0.000063 -3.778406  0.000791

SCF Convergence by DM+H criterion
max |DM_out - DM_in|         :     0.0000628790
max |H_out - H_in|      (eV) :     0.0007911849
SCF cycle converged after 4 iterations

Using DM_out to compute the final energy and forces
No. of atoms with KB's overlaping orbs in proc 0. Max # of overlaps:      90     225
System symmetry is of type slab but no DFTD3.Periodic list was found. Attempting to guess symmetry for D3.
Could not guess the right amount of periodicity directions for D3.
Enabling periodicity on all directions.

siesta: E_KS(eV) =           -24214.1562

siesta: Atomic forces (eV/Ang):
   Tot   -0.000001    0.000000    0.001343
   Max    0.007945
   Res    0.002785    sqrt( Sum f_i^2 / 3N )
   Max    0.007945    constrained

Stress tensor Voigt[x,y,z,yz,xz,xy] (kbar):      -25.08      -25.10       -4.11       -0.00       -0.00        0.01
(Free)E + p*V (eV/cell)   -24126.5558
Target enthalpy (eV/cell)   -24214.1562

outcoor: Relaxed atomic coordinates (Ang):
    1.42041636    0.00053276   18.17820860   1       1  C
    5.68117196    0.00068262   18.23696056   1       2  C
    9.94176075   -0.00060118   18.23015693   1       3  C
   14.20227779   -0.00011469   18.17820916   1       4  C
    3.55069918    1.23094271   18.21006868   1       5  C
    7.81126477    1.23007889   18.24945423   1       6  C
   12.07156967    1.22955977   18.21006980   1       7  C
   16.33254409    1.23055650   18.19581477   1       8  C
    5.68091650    2.46063707   18.24334201   1       9  C
    9.94151358    2.45953663   18.24334191   1      10  C
   14.20186550    2.45997997   18.21020629   1      11  C
    3.55025277    3.69049109   18.23015681   1      12  C
    7.81153370    3.69001531   18.25458332   1      13  C
   12.07176866    3.68973354   18.23696175   1      14  C
   16.33244085    3.69031011   18.23071142   1      15  C
    5.68130094    4.92021531   18.24945449   1      16  C
    9.94203373    4.91975081   18.24945491   1      17  C
   14.20205697    4.92012519   18.24307863   1      18  C
   18.46346033    4.91984098   18.24667102   1      19  C
    7.81216901    6.14987272   18.24334241   1      20  C
   12.07232032    6.15026246   18.24667130   1      21  C
   16.33285041    6.14986602   18.25205206   1      22  C
    5.68165855    7.37962831   18.23696107   1      23  C
    9.94258585    7.38015406   18.23015758   1      24  C
   14.20285829    7.38041258   18.25205161   1      25  C
   18.46392223    7.37931438   18.24307776   1      26  C
    7.81233240    8.60954204   18.21007001   1      27  C
   12.07302642    8.61054520   18.23071064   1      28  C
   16.33353968    8.60976595   18.25205186   1      29  C
   20.59456610    8.60922139   18.21020481   1      30  C
    9.94276568    9.84033206   18.19581457   1      31  C
   14.20326954    9.84060438   18.24307721   1      32  C
   18.46378048    9.83918727   18.23071075   1      33  C
    7.81190851   11.06962586   18.17820895   1      34  C
   12.07281633   11.07084165   18.21020468   1      35  C
   16.33346694   11.06994043   18.24667081   1      36  C
   20.59393828   11.06915477   18.19581436   1      37  C
    2.84070916    0.00084522   18.19581437   1      38  C
    7.10118049    0.00005956   18.24667081   1      39  C
   11.36183109   -0.00084166   18.21020467   1      40  C
   15.62273893    0.00037413   18.17820896   1      41  C
    4.97086694    1.23081273   18.23071075   1      42  C
    9.23137788    1.22939562   18.24307720   1      43  C
   13.49188175    1.22966795   18.19581459   1      44  C
    2.84008134    2.46077863   18.21020481   1      45  C
    7.10110775    2.46023405   18.25205186   1      46  C
   11.36162102    2.45945482   18.23071065   1      47  C
   15.62231503    2.46045799   18.21007003   1      48  C
    4.97072519    3.69068562   18.24307776   1      49  C
    9.23178912    3.68958743   18.25205161   1      50  C
   13.49206157    3.68984594   18.23015760   1      51  C
   17.75298887    3.69037169   18.23696106   1      52  C
    7.10179702    4.92013396   18.25205207   1      53  C
   11.36232711    4.91973752   18.24667130   1      54  C
   15.62247841    4.92012726   18.24334240   1      55  C
    4.97118708    6.15015901   18.24667102   1      56  C
    9.23259045    6.14987480   18.24307863   1      57  C
   13.49261370    6.15024917   18.24945491   1      58  C
   17.75334650    6.14978468   18.24945448   1      59  C
    7.10220657    7.37968990   18.23071142   1      60  C
[...]
   14.72137216    6.28273502   21.75080831   1     134  C
   18.92438862    5.58507078   21.75609982   1     135  C
    8.61678909    8.54315157   21.79281564   1     136  C
   12.82053616    7.84475291   21.75972961   1     137  C
   17.02420606    7.14768246   21.75080894   1     138  C
   10.92019611    9.40711926   21.79265748   1     139  C
   15.12372107    8.70952087   21.75080755   1     140  C
   19.32679857    8.01222950   21.77212094   1     141  C
    9.02029414   10.96992713   21.82476321   1     142  C
   13.22370545   10.27135098   21.77211919   1     143  C
   17.42688712    9.57468397   21.75973097   1     144  C
   21.62975576    8.87636289   21.80711169   1     145  C
   11.32386522   11.83370296   21.80711131   1     146  C
   15.52689090   11.13643181   21.75609964   1     147  C
   19.73010764   10.43924320   21.79265858   1     148  C

siesta: Program's energy decomposition (eV):
siesta: Ebs     =     -7857.920932
siesta: Eions   =     41759.932744
siesta: Ena     =      9221.339206
siesta: Ekin    =     16817.691506
siesta: Enl     =      -853.267189
siesta: Eso     =         0.000000
siesta: Edftu   =         0.000000
siesta: DEna    =       969.595939
siesta: DUscf   =        49.338070
siesta: DUext   =         0.000000
siesta: Ex      =     -7893.999533
siesta: Ec      =      -750.539565
siesta: Exc     =     -8644.539097
siesta: EbV     =         0.000000
siesta: eta*DQ  =         0.000000
siesta: Emadel  =         0.000000
siesta: Emeta   =         0.000000
siesta: Emolmec =         0.000000
siesta: Ekinion =         0.000000
siesta: Eharris =    -24214.154622
siesta: Etot    =    -24214.156201
siesta: FreeEng =    -24214.156201

siesta: Final energy (eV):
siesta:  Band Struct. =   -7857.920932
siesta:       Kinetic =   16817.691506
siesta:       Hartree =  391131.933550
siesta:         Edftu =       0.000000
siesta:       Eso     =       0.000000
siesta:    Ext. field =       0.000000
siesta:         Exch. =   -7893.999533
siesta:         Corr. =    -750.539565
siesta:     Bulk bias =       0.000000
siesta:   Exch.-corr. =   -8644.539097
siesta:  Ion-electron = -797488.607324
siesta:       Ion-ion =  373983.747056
siesta:       Ekinion =       0.000000
siesta: D3 dispersion =     -14.381892
siesta:         Total =  -24214.156201
siesta:         Fermi =      -3.778406

siesta: Stress tensor (static) (eV/Ang**3):
siesta:    -0.015652    0.000007   -0.000000
siesta:     0.000007   -0.015664   -0.000000
siesta:    -0.000000   -0.000000   -0.002565

siesta: Cell volume =       7756.442214 Ang**3

siesta: Pressure (static):
siesta:                Solid            Molecule  Units
siesta:           0.00012301          0.00012278  Ry/Bohr**3
siesta:           0.01129388          0.01127271  eV/Ang**3
siesta:          18.09479835         18.06086882  kBar
(Free)E+ p_basis*V_orbitals  =      -24124.964597
(Free)Eharris+ p_basis*V_orbitals  =      -24124.963019

siesta: Electric dipole (a.u.)  =    0.000000    0.000000   -0.000007
siesta: Electric dipole (Debye) =    0.000000    0.000000   -0.000017

cite: Please see "Graphene.bib" for an exhaustive BiBTeX file.
cite: Please clearly indicate Siesta version in published work: 5.0.0-alpha-112-g6e4f53aee-dirty
cite: This calculation has made use of the following articles
cite: which are encouraged to be cited in a published work.
        Primary SIESTA paper
          DOI: www.doi.org/10.1088/0953-8984/14/11/302

>> End of run:   1-DEC-2024  14:38:59
Job completed