Runtime information:
* Directory : /n/holylabs/LABS/kaxiras_lab/axzhu/projects/AM207-final-project/N_6/DFT-structures
>> Start of run:  30-NOV-2024  20:46:03

reinit: Reading from standard input
reinit: Dumping input in INPUT_TMP.36622
************************** Dump of input data file ****************************
#	Basic Information	#
SystemName      Graphene
SystemLabel     Graphene
#	Structural Information		#
%include structure.fdf
#       DFT Parameters          #
SolutionMethod diagon           # Method of solving system. Can change to OrderN, transiesta, etc.
#Diag.Algorithm MRRR
#NumberOfEigenStates -20 # this will include first 10 conduction bands
XC.Functional   GGA
XC.Authors      PBE
DFTD3 true
Spin non-polarized
Mesh.Cutoff 300 Ry              # Cut off plane waves with kinetic energy higher than this.
MaxSCFIterations 300            # Max number of iterations in the SCF loop.
DM.UseSaveDM true
MinSCFIterations       3
SCF.DM.Tolerance       0.0001
SCF.Mixer.Weight       0.10
SCF.Mixer.History      12
SCF.Mix.First          true
#             Basis             #
#PAO.BasisSize   DZP
PAO.Basis < basis.fdf
#	k-points, Bands, DOS		#
%block kgrid_Monkhorst_Pack
   1  0  0  0.0
   0  1  0  0.0
   0  0  1  0.0
%endblock kgrid_Monkhorst_Pack
#BandLinesScale ReciprocalLatticeVectors
#%block BandLines
#1   0.6666666667  0.3333333333  0.0000000000  K
#10  0.0000000000  0.0000000000  0.0000000000  Gamma
#10  0.5000000000  0.0000000000  0.0000000000  M
#10  0.6666666667  0.3333333333  0.0000000000  K
#%endblock BandLines
# Local density of states (LDOS)
# %block LocalDensityOfStates
# EF 8.40 8.50 eV
# %endblock LocalDensityOfStates
#             Wavefunctions             #
#WaveFuncKPointsScale ReciprocalLatticeVectors
#%block WaveFuncKPoints
#0.666 0.333 0.000 from 4375 to 4378 # K wavefuncs 4375 to 4378
#0.000 0.000 0.000 from 4375 to 4378 # Gamma wavefuncs 4375 to 4378
#0.500 0.000 0.000 from 4375 to 4378 # M wavefuncs 4375 to 4378
#%endblock WaveFuncKPoints
#WriteDenchar T
#       Geometry Optimisation           #
MD.UseSaveXV true
MD.TypeOfRun           CG                  # Conjugate Gradient
MD.NumCGsteps          200                 # Max number of steps
MD.MaxForceTol         0.01    eV/Ang     # 10 meV/Ang
MD.VariableCell        false               # Don't relax cell
MD.MaxCGDispl          0.5 Bohr            # Maximum displacement of any atom
# Fix COM in Z direction only
%block Geometry.Constraints
 center all 0.0 0.0 1.0
%endblock Geometry.Constraints
************************** End of input data file *****************************

reinit: -----------------------------------------------------------------------
reinit: System Name: Graphene
reinit: -----------------------------------------------------------------------
reinit: System Label: Graphene
reinit: -----------------------------------------------------------------------

initatom: Reading input for the pseudopotentials and atomic orbitals ----------
Species number:   1 Atomic number:    6 Label: C

---- Processing specs for species: C
Ground state valence configuration:   2s02  2p02
Reading pseudopotential information in PSML from:
  C.psml
PSML file version: 1.1
GGA--PBE XC_GGA_X_PBE--XC_GGA_C_PBE pb
 Using ATOM defaults for log grid...
PSML uuid: 297821e0-be41-11e7-6802-e1ff7dfff095

---- Pseudopotential check for C

Pseudized shells:
2s( 2.00) rc: 1.20
2p( 2.00) rc: 1.26
Valence configuration for ps generation: 2s:2p: Total charge:   4.000000
For C, standard SIESTA heuristics set lmxkb to 3
 (one more than the basis l, including polarization orbitals).
Use PS.lmax or PS.KBprojectors blocks to override.
C pseudopotential only contains V_ls up to l=1 -- lmxkb reset.

<basis_specs>
C                    Z=   6    Mass=  12.011        Charge= 0.99941
Lmxo=2 Lmxkb= 1    BasisType=split      Semic=F
L=0  Nsemic=0  Cnfigmx=2
          i=1  nzeta=1  polorb=0  (2s)
            splnorm:   0.15000
               vcte:    132.57
               rinn:    4.5256
               qcoe:    0.0000
               qyuk:    0.0000
               qwid:   0.10000E-01
                rcs:    6.0009
            lambdas:    1.0000
L=1  Nsemic=0  Cnfigmx=2
          i=1  nzeta=1  polorb=0  (2p)
            splnorm:   0.15000
               vcte:    6.0639
               rinn:    6.0646
               qcoe:    0.0000
               qyuk:    0.0000
               qwid:   0.10000E-01
                rcs:    6.7108
            lambdas:    1.0000
L=2  Nsemic=0  Cnfigmx=3
          i=1  nzeta=1  polorb=0  (3d)
            splnorm:   0.15000
               vcte:    14.478
               rinn:    4.3208
               qcoe:    0.0000
               qyuk:    0.0000
               qwid:   0.10000E-01
                rcs:    6.2254
            lambdas:    1.0000
L=0  Nkbl=1  erefs: 0.17977+309
L=1  Nkbl=1  erefs: 0.17977+309
</basis_specs>

atom: Called for C                     (Z =   6)
NOTE: C pseudopotential has channels up to l= 1
NOTE: PAOs with higher l will be generated with V_local

read_vps: Pseudopotential generation method:
read_vps: ONCVPSP-3.Hamann's oncvpsp
Valence charge in pseudo generation:    4.00000

read_vps: Pseudopotential includes a core correction:
read_vps: Pseudo-core for xc-correction

xc_check: Exchange-correlation functional:
xc_check: GGA Perdew, Burke & Ernzerhof 1996
Got Vlocal (oncv-fit) from psml data
Choosing vlocal chloc cutoff:  4.139772
qtot up to nchloc:    3.99998844
atom: Maximum radius for chlocal:    4.13977
atom: Maximum radius for r*vlocal+2*Zval:    4.13977
Reading KB projs from C psml data
Using scalar-relativistic projectors in PSML file

PSML: Kleinman-Bylander projectors:
   l= 0   rc=  1.231096   Ekb= 12.963096
   l= 0   rc=  1.231096   Ekb=  0.771007
   l= 1   rc=  1.294237   Ekb= -8.399923
   l= 1   rc=  1.294237   Ekb= -1.755033

PSML: Total number of  Kleinman-Bylander projectors:   8
atom: -------------------------------------------------------------------------

atom: SANKEY-TYPE ORBITALS:

atom: basis set generated (by rescaling the valence charge)
atom: for a cation of charge   0.9994

SPLIT: Orbitals with angular momentum L= 0

SPLIT: Basis orbitals for state 2s

   izeta = 1
                 lambda =    1.000000
                     rc =    6.099293
                 energy =   -2.079355
                kinetic =    1.090115
    potential(screened) =   -3.169470
       potential(ionic) =   -5.727963

[...]

SPLIT: Basis orbitals for state 2p

   izeta = 1
                 lambda =    1.000000
                     rc =    6.740804
                 energy =   -1.441657
                kinetic =    3.222058
    potential(screened) =   -4.663715
       potential(ionic) =   -7.206130
*Note: V_local used for l= 2

** Using vlocal for PAOs with L= 2

SPLIT: Orbitals with angular momentum L= 2

SPLIT: Basis orbitals for state 3d

   izeta = 1
                 lambda =    1.000000
                     rc =    6.253707
                 energy =    0.017329
                kinetic =    1.197074
    potential(screened) =   -1.179745
       potential(ionic) =   -2.838380
atom: Total number of Sankey-type orbitals:  9

atm_pop: Valence configuration (for local Pseudopot. screening):
 2s( 2.00)
 2p( 2.00)
 3d( 0.00)
Vna: chval, zval:    4.00000   4.00000

Vna:  Cut-off radius for the neutral-atom potential:   6.740804
comcore: Pseudo-core radius Rcore=  1.682861

atom: _________________________________________________________________________

prinput: Basis input

PAO.BasisType split

%block ChemicalSpeciesLabel
    1    6 C                       # Species index, atomic number, species label
%endblock ChemicalSpeciesLabel

%block PAO.Basis                 # Define Basis set
# WARNING: This information might be incomplete!
C                     3   0.999            # Label, l-shells, ionic net charge
 n=2   0   1                         # n, l, Nzeta
   6.099
   1.000
 n=2   1   1                         # n, l, Nzeta
   6.741
   1.000
 n=3   2   1                         # n, l, Nzeta
   6.254
   1.000
%endblock PAO.Basis

prinput: ----------------------------------------------------------------------

Dumping basis to NetCDF file C.ion.nc
coor:   Atomic-coordinates input format  =     Cartesian coordinates
coor:                                          (in Angstroms)

siesta: WARNING: XV file not found

siesta: Atomic coordinates (Bohr) and species
siesta:      2.68394   0.00000  34.62923  1        1
siesta:     10.73577   0.00000  34.62923  1        2
siesta:     18.78760   0.00000  34.62923  1        3
siesta:     26.83943   0.00000  34.62923  1        4
siesta:     34.89126   0.00000  34.62923  1        5
siesta:     42.94309   0.00000  34.62923  1        6
siesta:      6.70986   2.32436  34.62923  1        7
siesta:     14.76169   2.32436  34.62923  1        8
siesta:     22.81352   2.32436  34.62923  1        9
siesta:     30.86535   2.32436  34.62923  1       10
siesta:     38.91718   2.32436  34.62923  1       11
siesta:     46.96901   2.32436  34.62923  1       12
siesta:     10.73577   4.64873  34.62923  1       13
siesta:     18.78760   4.64873  34.62923  1       14
siesta:     26.83943   4.64873  34.62923  1       15
siesta:     34.89126   4.64873  34.62923  1       16
siesta:     42.94309   4.64873  34.62923  1       17
siesta:      6.70986   6.97309  34.62923  1       18
siesta:     14.76169   6.97309  34.62923  1       19
siesta:     22.81352   6.97309  34.62923  1       20
siesta:     30.86535   6.97309  34.62923  1       21
siesta:     38.91718   6.97309  34.62923  1       22
siesta:     46.96901   6.97309  34.62923  1       23
siesta:     10.73577   9.29745  34.62923  1       24
siesta:     18.78760   9.29745  34.62923  1       25
siesta:     26.83943   9.29745  34.62923  1       26
siesta:     34.89126   9.29745  34.62923  1       27
siesta:     42.94309   9.29745  34.62923  1       28
siesta:     50.99492   9.29745  34.62923  1       29
siesta:     14.76169  11.62182  34.62923  1       30
siesta:     22.81352  11.62182  34.62923  1       31
siesta:     30.86535  11.62182  34.62923  1       32
siesta:     38.91718  11.62182  34.62923  1       33
siesta:     46.96901  11.62182  34.62923  1       34
siesta:     10.73577  13.94618  34.62923  1       35
siesta:     18.78760  13.94618  34.62923  1       36
siesta:     26.83943  13.94618  34.62923  1       37
siesta:     34.89126  13.94618  34.62923  1       38
siesta:     42.94309  13.94618  34.62923  1       39
siesta:     50.99492  13.94618  34.62923  1       40
siesta:     14.76169  16.27054  34.62923  1       41
siesta:     22.81352  16.27054  34.62923  1       42
siesta:     30.86535  16.27054  34.62923  1       43
siesta:     38.91718  16.27054  34.62923  1       44
siesta:     46.96901  16.27054  34.62923  1       45
siesta:     55.02084  16.27054  34.62923  1       46
siesta:     18.78760  18.59491  34.62923  1       47
siesta:     26.83943  18.59491  34.62923  1       48
siesta:     34.89126  18.59491  34.62923  1       49
siesta:     42.94309  18.59491  34.62923  1       50
siesta:     50.99492  18.59491  34.62923  1       51
siesta:     14.76169  20.91927  34.62923  1       52
siesta:     22.81352  20.91927  34.62923  1       53
[...]
redata: ***********************************************************************

%block SCF.Mixers
  Pulay
%endblock SCF.Mixers

%block SCF.Mixer.Pulay
  # Mixing method
  method pulay
  variant stable

  # Mixing options
  weight 0.1000
  weight.linear 0.1000
  history 12
%endblock SCF.Mixer.Pulay

DFT-D3: loading default parameters for functional PBE.
DM_history_depth set to one: no extrapolation allowed by default for geometry relaxation
Size of DM history Fstack: 1
Total number of electrons:  1456.000000
Total ionic charge:  1456.000000

* ProcessorY, Blocksize:    8  51

* Orbital distribution balance (max,min):    63    51

 Kpoints in:            1 . Kpoints trimmed:            1

siesta: k-grid: Number of k-points = 1
siesta: k-points from Monkhorst-Pack grid
siesta: k-cutoff (effective) =    11.733 Ang
siesta: k-point supercell and displacements
siesta: k-grid:     1     0     0      0.000
siesta: k-grid:     0     1     0      0.000
siesta: k-grid:     0     0     1      0.000

diag: Algorithm                                     = D&C
diag: Parallel over k                               =   F
diag: Use parallel 2D distribution                  =   T
diag: Parallel block-size                           = 51
diag: Parallel distribution                         =     8 x     8
diag: Used triangular part                          = Lower
diag: Absolute tolerance                            =  0.100E-15
diag: Orthogonalization factor                      =  0.100E-05

siesta: Constraint v=[  0.00000,  0.00000,  1.00000] (364): center-dir
  [ 1 -- 364 ]

ts: **************************************************************
ts: Save H and S matrices                           =    F
ts: Save DM and EDM matrices                        =    F
ts: Only save the overlap matrix S                  =    F
ts: **************************************************************

************************ Begin: TS CHECKS AND WARNINGS ************************
************************ End: TS CHECKS AND WARNINGS **************************

                        Begin CG opt. move =      0

outcell: Unit cell vectors (Ang):
       23.434647   -1.230000    0.000000
       12.782535   19.680000    0.000000
        0.000000    0.000000   40.000000

outcell: Cell vector modules (Ang)   :   23.466904   23.466904   40.000000
outcell: Cell angles (23,13,12) (deg):     90.0000     90.0000     60.0000
outcell: Cell volume (Ang**3)        :  19076.6552
<dSpData1D:S at geom step 0
  <sparsity:sparsity for geom step 0
    nrows_g=3276 nrows=63 sparsity=.0057 nnzs=60922, refcount: 7>
  <dData1D:(new from dSpData1D) n=60922, refcount: 1>
refcount: 1>
new_DM -- step:     1
Initializing Density Matrix...

Attempting to read DM from file... Failed...
DM filled with atomic data:
<dSpData2D:DM initialized from atoms
  <sparsity:sparsity for geom step 0
    nrows_g=3276 nrows=63 sparsity=.0057 nnzs=60922, refcount: 8>
  <dData2D:DM n=60922 m=1, refcount: 1>
refcount: 1>
No. of atoms with KB's overlaping orbs in proc 0. Max # of overlaps:     124     237

InitMesh: MESH = 216 x 216 x 432 = 20155392
InitMesh: Mesh cutoff (required, used) =   300.000   312.203 Ry
New grid distribution [1]: sub = 2
New grid distribution [2]: sub = 2
New grid distribution [3]: sub = 2
Setting up quadratic distribution...

stepf: Fermi-Dirac step function

siesta: Program's energy decomposition (eV):
siesta: Ebs     =    -21316.273407
siesta: Eions   =    102706.861614
siesta: Ena     =     22679.041356
siesta: Ekin    =     40128.329620
siesta: Enl     =     -1808.259629
siesta: Eso     =         0.000000
siesta: Edftu   =         0.000000
siesta: DEna    =      3072.646096
siesta: DUscf   =       195.840054
siesta: DUext   =         0.000000
siesta: Ex      =    -19191.649482
siesta: Ec      =     -1851.838133
siesta: Exc     =    -21043.487615
siesta: EbV     =         0.000000
siesta: eta*DQ  =         0.000000
siesta: Emadel  =         0.000000
siesta: Emeta   =         0.000000
siesta: Emolmec =         0.000000
siesta: Ekinion =         0.000000
siesta: Eharris =    -60922.660084
siesta: Etot    =    -59482.751733
siesta: FreeEng =    -59482.751733

SCF Convergence by DM+H criterion
max |DM_out - DM_in|         :     0.0000703404
max |H_out - H_in|      (eV) :     0.0006815728
SCF cycle converged after 10 iterations

Using DM_out to compute the final energy and forces
No. of atoms with KB's overlaping orbs in proc 0. Max # of overlaps:     124     237
System symmetry is of type slab but no DFTD3.Periodic list was found. Attempting to guess symmetry for D3.
Could not guess the right amount of periodicity directions for D3.
Enabling periodicity on all directions.

siesta: E_KS(eV) =           -59549.0991

siesta: E_KS - E_eggbox =    -59549.0991

siesta: Atomic forces (eV/Ang):
   Tot    0.000000    0.000000   -0.000000
   Max    0.049201
   Res    0.017305    sqrt( Sum f_i^2 / 3N )
   Max    0.049201    constrained

Stress tensor Voigt[x,y,z,yz,xz,xy] (kbar):      -25.61      -25.62       -5.48       -0.00        0.00        0.00
(Free)E + p*V (eV/cell)   -59324.0333
Target enthalpy (eV/cell)   -59549.0991

[...]

outcell: Cell vector modules (Ang)   :   23.466904   23.466904   40.000000
outcell: Cell angles (23,13,12) (deg):     90.0000     90.0000     60.0000
outcell: Cell volume (Ang**3)        :  19076.6552
<dSpData1D:S at geom step 1
  <sparsity:sparsity for geom step 1
    nrows_g=3276 nrows=63 sparsity=.0057 nnzs=60675, refcount: 7>
  <dData1D:(new from dSpData1D) n=60675, refcount: 1>
refcount: 1>
new_DM -- step:     2
Re-using DM from previous geometries...
Number of DMs in history: 1
 DM extrapolation coefficients:
1   1.00000
New DM after history re-use:
<dSpData2D:SpM extrapolated using coords
  <sparsity:sparsity for geom step 1
    nrows_g=3276 nrows=63 sparsity=.0057 nnzs=60675, refcount: 9>
  <dData2D:(temp array for extrapolation) n=60675 m=1, refcount: 1>
refcount: 1>
No. of atoms with KB's overlaping orbs in proc 0. Max # of overlaps:     123     232

[...]

        iscf     Eharris(eV)        E_KS(eV)     FreeEng(eV)     dDmax    Ef(eV) dHmax(eV)
   scf:    1   -59549.680359   -59549.082467   -59549.082467  0.008651 -3.914978  0.195179
   scf:    2   -59548.021743   -59548.752147   -59548.752147  0.005818 -3.951532  1.191295
   scf:    3   -59549.139705   -59549.093321   -59549.093321  0.004994 -3.916427  0.015322
   scf:    4   -59549.095111   -59549.094268   -59549.094268  0.000177 -3.916349  0.009675
   scf:    5   -59549.095054   -59549.094695   -59549.094695  0.000188 -3.916714  0.002566
   scf:    6   -59549.094758   -59549.094733   -59549.094733  0.000068 -3.917201  0.002369
   scf:    7   -59549.094728   -59549.094732   -59549.094732  0.000022 -3.917124  0.002357
   scf:    8   -59549.094735   -59549.094734   -59549.094734  0.000009 -3.917165  0.000455

[...]

cgvc: Finished line minimization    1.  Mean atomic displacement =    0.0060

[...]

cgvc: Finished line minimization   15.  Mean atomic displacement =    0.0009

                        Begin CG opt. move =     41

outcell: Unit cell vectors (Ang):
       23.434647   -1.230000    0.000000
       12.782535   19.680000    0.000000
        0.000000    0.000000   40.000000

outcell: Cell vector modules (Ang)   :   23.466904   23.466904   40.000000
outcell: Cell angles (23,13,12) (deg):     90.0000     90.0000     60.0000
outcell: Cell volume (Ang**3)        :  19076.6552
<dSpData1D:S at geom step 41
  <sparsity:sparsity for geom step 41
    nrows_g=3276 nrows=63 sparsity=.0055 nnzs=59156, refcount: 7>
  <dData1D:(new from dSpData1D) n=59156, refcount: 1>
refcount: 1>
new_DM -- step:    42
Re-using DM from previous geometries...
Number of DMs in history: 1
 DM extrapolation coefficients:
1   1.00000
New DM after history re-use:
<dSpData2D:SpM extrapolated using coords
  <sparsity:sparsity for geom step 41
    nrows_g=3276 nrows=63 sparsity=.0055 nnzs=59156, refcount: 9>
  <dData2D:(temp array for extrapolation) n=59156 m=1, refcount: 1>
refcount: 1>
No. of atoms with KB's overlaping orbs in proc 0. Max # of overlaps:     119     226

InitMesh: MESH = 216 x 216 x 432 = 20155392
InitMesh: Mesh cutoff (required, used) =   300.000   312.203 Ry
New grid distribution [1]: sub = 2
New grid distribution [2]: sub = 2
New grid distribution [3]: sub = 2
Setting up quadratic distribution...

        iscf     Eharris(eV)        E_KS(eV)     FreeEng(eV)     dDmax    Ef(eV) dHmax(eV)
   scf:    1   -59549.483046   -59549.486589   -59549.486589  0.000186 -4.000429  0.016322
   scf:    2   -59549.477288   -59549.483800   -59549.483800  0.000907 -3.999735  0.068789
   scf:    3   -59549.487241   -59549.486782   -59549.486782  0.000735 -4.000306  0.002078
   scf:    4   -59549.486791   -59549.486788   -59549.486788  0.000036 -4.000309  0.000517

SCF Convergence by DM+H criterion
max |DM_out - DM_in|         :     0.0000364943
max |H_out - H_in|      (eV) :     0.0005171480
SCF cycle converged after 4 iterations

Using DM_out to compute the final energy and forces
No. of atoms with KB's overlaping orbs in proc 0. Max # of overlaps:     119     226
System symmetry is of type slab but no DFTD3.Periodic list was found. Attempting to guess symmetry for D3.
Could not guess the right amount of periodicity directions for D3.
Enabling periodicity on all directions.

siesta: E_KS(eV) =           -59549.4885

siesta: Atomic forces (eV/Ang):
   Tot    0.000002    0.000000    0.000000
   Max    0.008095
   Res    0.002969    sqrt( Sum f_i^2 / 3N )
   Max    0.008095    constrained

Stress tensor Voigt[x,y,z,yz,xz,xy] (kbar):      -25.90      -25.90       -3.99        0.00       -0.00       -0.00
(Free)E + p*V (eV/cell)   -59328.0644
Target enthalpy (eV/cell)   -59549.4885

outcoor: Relaxed atomic coordinates (Ang):
    1.42037380    0.00089371   18.13968880   1       1  C
    5.68124946    0.00262545   18.19445413   1       2  C
    9.94183289    0.00125035   18.25118495   1       3  C
   14.20273667   -0.00134027   18.24593599   1       4  C
   18.46296654   -0.00240938   18.18530970   1       5  C
   22.72369207   -0.00039631   18.13968861   1       6  C
    3.55024605    1.23210817   18.16443935   1       7  C
    7.81109943    1.23228646   18.22958034   1       8  C
   12.07217377    1.23004602   18.26002745   1       9  C
   16.33245958    1.22789058   18.22412532   1      10  C
   20.59248972    1.22851800   18.16443899   1      11  C
   24.85346604    1.23092208   18.15245616   1      12  C
    5.68018903    2.46239921   18.20318340   1      13  C
    9.94152634    2.46114504   18.25648815   1      14  C
   14.20228336    2.45893930   18.25444294   1      15  C
   18.46205742    2.45795895   18.20318245   1      16  C
   22.72227524    2.45969756   18.16443744   1      17  C
    3.54899192    3.69179792   18.18531021   1      18  C
    7.81065129    3.69178471   18.24086519   1      19  C
   12.07212273    3.69003655   18.26800722   1      20  C
   16.33214876    3.68830413   18.24086456   1      21  C
   20.59175276    3.68876416   18.19445415   1      22  C
   24.85260859    3.69075107   18.18529359   1      23  C
    5.67971686    4.92172121   18.22412607   1      24  C
    9.94162282    4.92078735   18.26536528   1      25  C
   14.20231672    4.91927601   18.26536526   1      26  C
   18.46191210    4.91843984   18.22958019   1      27  C
   22.72193295    4.91962297   18.20309518   1      28  C
   26.98323897    4.92105697   18.21715937   1      29  C
    7.81092485    6.15098324   18.25444362   1      30  C
   12.07240508    6.14998719   18.27308222   1      31  C
   16.33247732    6.14901191   18.25648802   1      32  C
   20.59195293    6.14905648   18.22937208   1      33  C
   24.85262857    6.15020726   18.22443811   1      34  C
    5.68003102    7.38073070   18.24593690   1      35  C
    9.94216616    7.38020975   18.26800740   1      36  C
   14.20292939    7.37971784   18.26800793   1      37  C
   18.46265674    7.37922867   18.25118519   1      38  C
   22.72252617    7.37971910   18.24052692   1      39  C
   26.98390252    7.38022084   18.24669792   1      40  C
    7.81172535    8.61016040   18.26002826   1      41  C
   12.07327760    8.60990018   18.26536502   1      42  C
   16.33331719    8.60975844   18.26002852   1      43  C
   20.59300451    8.60973587   18.25473936   1      44  C
   24.85352597    8.60988322   18.25565844   1      45  C
   29.11555740    8.60985798   18.25772792   1      46  C
    9.94321360    9.83980432   18.25648803   1      47  C
   14.20400648    9.84003977   18.25444326   1      48  C
   18.46367519    9.84024985   18.25772802   1      49  C
   22.72364439    9.83998270   18.26443145   1      50  C
   26.98489416    9.83975346   18.26320767   1      51  C
    7.81272727   11.06948614   18.25118557   1      52  C
   12.07441494   11.06987496   18.24086443   1      53  C
   16.33444813   11.07057537   18.24593679   1      54  C
   20.59412783   11.07051001   18.26320798   1      55  C
   24.85463490   11.06988920   18.27072568   1      56  C
   29.11654708   11.06916731   18.25473929   1      57  C
    9.94420475   12.29923689   18.22957938   1      58  C
   14.20503961   12.30035003   18.22412555   1      59  C
   18.46460577   12.30113546   18.24669821   1      60  C
[...]
   19.58621610   16.48812707   21.77556187   1     350  C
   23.82436636   16.04384081   21.73679222   1     351  C
   28.06170143   15.59996842   21.75947214   1     352  C
   32.29805292   15.15381301   21.81470604   1     353  C
   13.35921263   18.38199168   21.86031137   1     354  C
   17.59668920   17.93405500   21.81470639   1     355  C
   21.83420633   17.48902769   21.75330201   1     356  C
   26.07209421   17.04540064   21.74526060   1     357  C
   30.30902435   16.60076664   21.79690407   1     358  C
   34.54572234   16.15318051   21.84754401   1     359  C
   15.60737654   19.38091177   21.84754383   1     360  C
   19.84453751   18.93426307   21.78284060   1     361  C
   24.08211597   18.49045765   21.74227199   1     362  C
   28.31977066   18.04685783   21.77062757   1     363  C
   32.55657352   17.60064387   21.83556242   1     364  C

siesta: Program's energy decomposition (eV):
siesta: Ebs     =    -19319.657120
siesta: Eions   =    102706.861614
siesta: Ena     =     22679.529810
siesta: Ekin    =     41367.834437
siesta: Enl     =     -2098.884246
siesta: Eso     =         0.000000
siesta: Edftu   =         0.000000
siesta: DEna    =      2384.208258
siesta: DUscf   =       121.291106
siesta: DUext   =         0.000000
siesta: Ex      =    -19415.258984
siesta: Ec      =     -1845.955217
siesta: Exc     =    -21261.214201
siesta: EbV     =         0.000000
siesta: eta*DQ  =         0.000000
siesta: Emadel  =         0.000000
siesta: Emeta   =         0.000000
siesta: Emolmec =         0.000000
siesta: Ekinion =         0.000000
siesta: Eharris =    -59549.486791
siesta: Etot    =    -59549.488499
siesta: FreeEng =    -59549.488499

siesta: Final energy (eV):
siesta:  Band Struct. =  -19319.657120
siesta:       Kinetic =   41367.834437
siesta:       Hartree =  962152.266849
siesta:         Edftu =       0.000000
siesta:       Eso     =       0.000000
siesta:    Ext. field =       0.000000
siesta:         Exch. =  -19415.258984
siesta:         Corr. =   -1845.955217
siesta:     Bulk bias =       0.000000
siesta:   Exch.-corr. =  -21261.214201
siesta:  Ion-electron =-1961747.552181
siesta:       Ion-ion =  919974.568646
siesta:       Ekinion =       0.000000
siesta: D3 dispersion =     -35.392047
siesta:         Total =  -59549.488499
siesta:         Fermi =      -4.000309

siesta: Stress tensor (static) (eV/Ang**3):
siesta:    -0.016168   -0.000003   -0.000000
siesta:    -0.000003   -0.016164    0.000000
siesta:    -0.000000    0.000000   -0.002489

siesta: Cell volume =      19076.655174 Ang**3

siesta: Pressure (static):
siesta:                Solid            Molecule  Units
siesta:           0.00012642          0.00012705  Ry/Bohr**3
siesta:           0.01160707          0.01166532  eV/Ang**3
siesta:          18.59658066         18.68990622  kBar
(Free)E+ p_basis*V_orbitals  =      -59330.125365
(Free)Eharris+ p_basis*V_orbitals  =      -59330.123658

siesta: Electric dipole (a.u.)  =    0.000000    0.000000   -0.000000
siesta: Electric dipole (Debye) =    0.000000    0.000000   -0.000000

cite: Please see "Graphene.bib" for an exhaustive BiBTeX file.
cite: Please clearly indicate Siesta version in published work: 5.0.0-alpha-112-g6e4f53aee-dirty
cite: This calculation has made use of the following articles
cite: which are encouraged to be cited in a published work.
        Primary SIESTA paper
          DOI: www.doi.org/10.1088/0953-8984/14/11/302

>> End of run:  30-NOV-2024  21:15:59
Job completed