Runtime information:
* Directory : /n/holylabs/LABS/kaxiras_lab/axzhu/projects/AM207-final-project/N_6/PSO_z
>> Start of run:   1-DEC-2024  14:19:34

reinit: Reading from standard input
reinit: Dumping input in INPUT_TMP.48981
************************** Dump of input data file ****************************
#	Basic Information	#
SystemName      Graphene
SystemLabel     Graphene
#	Structural Information		#
%include structure.fdf
#       DFT Parameters          #
SolutionMethod diagon           # Method of solving system. Can change to OrderN, transiesta, etc.
#Diag.Algorithm MRRR
#NumberOfEigenStates -20 # this will include first 10 conduction bands
XC.Functional   GGA
XC.Authors      PBE
DFTD3 true
Spin non-polarized
Mesh.Cutoff 300 Ry              # Cut off plane waves with kinetic energy higher than this.
MaxSCFIterations 300            # Max number of iterations in the SCF loop.
DM.UseSaveDM true
MinSCFIterations       3
SCF.DM.Tolerance       0.0001
SCF.Mixer.Weight       0.10
SCF.Mixer.History      12
SCF.Mix.First          true
#             Basis             #
#PAO.BasisSize   DZP
PAO.Basis < basis.fdf
#	k-points, Bands, DOS		#
%block kgrid_Monkhorst_Pack
   1  0  0  0.0
   0  1  0  0.0
   0  0  1  0.0
%endblock kgrid_Monkhorst_Pack
#BandLinesScale ReciprocalLatticeVectors
#%block BandLines
#1   0.6666666667  0.3333333333  0.0000000000  K
#10  0.0000000000  0.0000000000  0.0000000000  Gamma
#10  0.5000000000  0.0000000000  0.0000000000  M
#10  0.6666666667  0.3333333333  0.0000000000  K
#%endblock BandLines
# Local density of states (LDOS)
# %block LocalDensityOfStates
# EF 8.40 8.50 eV
# %endblock LocalDensityOfStates
#             Wavefunctions             #
#WaveFuncKPointsScale ReciprocalLatticeVectors
#%block WaveFuncKPoints
#0.666 0.333 0.000 from 4375 to 4378 # K wavefuncs 4375 to 4378
#0.000 0.000 0.000 from 4375 to 4378 # Gamma wavefuncs 4375 to 4378
#0.500 0.000 0.000 from 4375 to 4378 # M wavefuncs 4375 to 4378
#%endblock WaveFuncKPoints
#WriteDenchar T
#       Geometry Optimisation           #
MD.UseSaveXV true
MD.TypeOfRun           CG                  # Conjugate Gradient
MD.NumCGsteps          200                 # Max number of steps
MD.MaxForceTol         0.01    eV/Ang      # 10 meV/Ang
MD.VariableCell        false               # Don't relax cell
MD.MaxCGDispl          0.5 Bohr            # Maximum displacement of any atom
# Fix COM in Z direction only
%block Geometry.Constraints
 center all 0.0 0.0 1.0
%endblock Geometry.Constraints
************************** End of input data file *****************************

reinit: -----------------------------------------------------------------------
reinit: System Name: Graphene
reinit: -----------------------------------------------------------------------
reinit: System Label: Graphene
reinit: -----------------------------------------------------------------------

initatom: Reading input for the pseudopotentials and atomic orbitals ----------
Species number:   1 Atomic number:    6 Label: C

---- Processing specs for species: C
Ground state valence configuration:   2s02  2p02
Reading pseudopotential information in PSML from:
  C.psml
PSML file version: 1.1
GGA--PBE XC_GGA_X_PBE--XC_GGA_C_PBE pb
 Using ATOM defaults for log grid...
PSML uuid: 297821e0-be41-11e7-6802-e1ff7dfff095

---- Pseudopotential check for C

Pseudized shells:
2s( 2.00) rc: 1.20
2p( 2.00) rc: 1.26
Valence configuration for ps generation: 2s:2p: Total charge:   4.000000
For C, standard SIESTA heuristics set lmxkb to 3
 (one more than the basis l, including polarization orbitals).
Use PS.lmax or PS.KBprojectors blocks to override.
C pseudopotential only contains V_ls up to l=1 -- lmxkb reset.

<basis_specs>
C                    Z=   6    Mass=  12.011        Charge= 0.99941
Lmxo=2 Lmxkb= 1    BasisType=split      Semic=F
L=0  Nsemic=0  Cnfigmx=2
          i=1  nzeta=1  polorb=0  (2s)
            splnorm:   0.15000
               vcte:    132.57
               rinn:    4.5256
               qcoe:    0.0000
               qyuk:    0.0000
               qwid:   0.10000E-01
                rcs:    6.0009
            lambdas:    1.0000
L=1  Nsemic=0  Cnfigmx=2
          i=1  nzeta=1  polorb=0  (2p)
            splnorm:   0.15000
               vcte:    6.0639
               rinn:    6.0646
               qcoe:    0.0000
               qyuk:    0.0000
               qwid:   0.10000E-01
                rcs:    6.7108
            lambdas:    1.0000
L=2  Nsemic=0  Cnfigmx=3
          i=1  nzeta=1  polorb=0  (3d)
            splnorm:   0.15000
               vcte:    14.478
               rinn:    4.3208
               qcoe:    0.0000
               qyuk:    0.0000
               qwid:   0.10000E-01
                rcs:    6.2254
            lambdas:    1.0000
L=0  Nkbl=1  erefs: 0.17977+309
L=1  Nkbl=1  erefs: 0.17977+309
</basis_specs>

atom: Called for C                     (Z =   6)
NOTE: C pseudopotential has channels up to l= 1
NOTE: PAOs with higher l will be generated with V_local

read_vps: Pseudopotential generation method:
read_vps: ONCVPSP-3.Hamann's oncvpsp
Valence charge in pseudo generation:    4.00000

read_vps: Pseudopotential includes a core correction:
read_vps: Pseudo-core for xc-correction

xc_check: Exchange-correlation functional:
xc_check: GGA Perdew, Burke & Ernzerhof 1996
Got Vlocal (oncv-fit) from psml data
Choosing vlocal chloc cutoff:  4.139772
qtot up to nchloc:    3.99998844
atom: Maximum radius for chlocal:    4.13977
atom: Maximum radius for r*vlocal+2*Zval:    4.13977
Reading KB projs from C psml data
Using scalar-relativistic projectors in PSML file

PSML: Kleinman-Bylander projectors:
   l= 0   rc=  1.231096   Ekb= 12.963096
   l= 0   rc=  1.231096   Ekb=  0.771007
   l= 1   rc=  1.294237   Ekb= -8.399923
   l= 1   rc=  1.294237   Ekb= -1.755033

PSML: Total number of  Kleinman-Bylander projectors:   8
atom: -------------------------------------------------------------------------

atom: SANKEY-TYPE ORBITALS:

atom: basis set generated (by rescaling the valence charge)
atom: for a cation of charge   0.9994

SPLIT: Orbitals with angular momentum L= 0

SPLIT: Basis orbitals for state 2s

   izeta = 1
                 lambda =    1.000000
                     rc =    6.099293
                 energy =   -2.079355
                kinetic =    1.090115
    potential(screened) =   -3.169470
       potential(ionic) =   -5.727963

[...]

SPLIT: Basis orbitals for state 2p

   izeta = 1
                 lambda =    1.000000
                     rc =    6.740804
                 energy =   -1.441657
                kinetic =    3.222058
    potential(screened) =   -4.663715
       potential(ionic) =   -7.206130
*Note: V_local used for l= 2

** Using vlocal for PAOs with L= 2

SPLIT: Orbitals with angular momentum L= 2

SPLIT: Basis orbitals for state 3d

   izeta = 1
                 lambda =    1.000000
                     rc =    6.253707
                 energy =    0.017329
                kinetic =    1.197074
    potential(screened) =   -1.179745
       potential(ionic) =   -2.838380
atom: Total number of Sankey-type orbitals:  9

atm_pop: Valence configuration (for local Pseudopot. screening):
 2s( 2.00)
 2p( 2.00)
 3d( 0.00)
Vna: chval, zval:    4.00000   4.00000

Vna:  Cut-off radius for the neutral-atom potential:   6.740804
comcore: Pseudo-core radius Rcore=  1.682861

atom: _________________________________________________________________________

prinput: Basis input

PAO.BasisType split

%block ChemicalSpeciesLabel
    1    6 C                       # Species index, atomic number, species label
%endblock ChemicalSpeciesLabel

%block PAO.Basis                 # Define Basis set
# WARNING: This information might be incomplete!
C                     3   0.999            # Label, l-shells, ionic net charge
 n=2   0   1                         # n, l, Nzeta
   6.099
   1.000
 n=2   1   1                         # n, l, Nzeta
   6.741
   1.000
 n=3   2   1                         # n, l, Nzeta
   6.254
   1.000
%endblock PAO.Basis

prinput: ----------------------------------------------------------------------

Dumping basis to NetCDF file C.ion.nc
coor:   Atomic-coordinates input format  =     Cartesian coordinates
coor:                                          (in Angstroms)

siesta: WARNING: XV file not found

siesta: Atomic coordinates (Bohr) and species
siesta:      2.68394   0.00000  34.55460  1        1
siesta:     10.73577   0.00000  34.56996  1        2
siesta:     18.78760   0.00000  34.56902  1        3
siesta:     26.83943   0.00000  34.50931  1        4
siesta:     34.89126   0.00000  34.58349  1        5
siesta:     42.94309   0.00000  34.61261  1        6
siesta:      6.70986   2.32436  34.57670  1        7
siesta:     14.76169   2.32436  34.61262  1        8
siesta:     22.81352   2.32436  34.58570  1        9
siesta:     30.86535   2.32436  34.54900  1       10
siesta:     38.91718   2.32436  34.56597  1       11
siesta:     46.96901   2.32436  34.62641  1       12
siesta:     10.73577   4.64873  34.52282  1       13
siesta:     18.78760   4.64873  34.58593  1       14
siesta:     26.83943   4.64873  34.54973  1       15
siesta:     34.89126   4.64873  34.54679  1       16
siesta:     42.94309   4.64873  34.61215  1       17
siesta:      6.70986   6.97309  34.58222  1       18
siesta:     14.76169   6.97309  34.55783  1       19
siesta:     22.81352   6.97309  34.55692  1       20
siesta:     30.86535   6.97309  34.59719  1       21
siesta:     38.91718   6.97309  34.55831  1       22
siesta:     46.96901   6.97309  34.55088  1       23
siesta:     10.73577   9.29745  34.54489  1       24
siesta:     18.78760   9.29745  34.55349  1       25
siesta:     26.83943   9.29745  34.57949  1       26
siesta:     34.89126   9.29745  34.49659  1       27
siesta:     42.94309   9.29745  34.56670  1       28
siesta:     50.99492   9.29745  34.50618  1       29
siesta:     14.76169  11.62182  34.51880  1       30
siesta:     22.81352  11.62182  34.52252  1       31
siesta:     30.86535  11.62182  34.51491  1       32
siesta:     38.91718  11.62182  34.62203  1       33
siesta:     46.96901  11.62182  34.55345  1       34
siesta:     10.73577  13.94618  34.45800  1       35
siesta:     18.78760  13.94618  34.57513  1       36
siesta:     26.83943  13.94618  34.54585  1       37
siesta:     34.89126  13.94618  34.58100  1       38
siesta:     42.94309  13.94618  34.58477  1       39
siesta:     50.99492  13.94618  34.51621  1       40
siesta:     14.76169  16.27054  34.57107  1       41
siesta:     22.81352  16.27054  34.60702  1       42
siesta:     30.86535  16.27054  34.56268  1       43
siesta:     38.91718  16.27054  34.62059  1       44
siesta:     46.96901  16.27054  34.54736  1       45
siesta:     55.02084  16.27054  34.52929  1       46
siesta:     18.78760  18.59491  34.47743  1       47
siesta:     26.83943  18.59491  34.52380  1       48
siesta:     34.89126  18.59491  34.55772  1       49
siesta:     42.94309  18.59491  34.59824  1       50
siesta:     50.99492  18.59491  34.56063  1       51
siesta:     14.76169  20.91927  34.57798  1       52
siesta:     22.81352  20.91927  34.59222  1       53
[...]
redata: ***********************************************************************

%block SCF.Mixers
  Pulay
%endblock SCF.Mixers

%block SCF.Mixer.Pulay
  # Mixing method
  method pulay
  variant stable

  # Mixing options
  weight 0.1000
  weight.linear 0.1000
  history 12
%endblock SCF.Mixer.Pulay

DFT-D3: loading default parameters for functional PBE.
DM_history_depth set to one: no extrapolation allowed by default for geometry relaxation
Size of DM history Fstack: 1
Total number of electrons:  1456.000000
Total ionic charge:  1456.000000

* ProcessorY, Blocksize:    8  51

* Orbital distribution balance (max,min):    63    51

 Kpoints in:            1 . Kpoints trimmed:            1

siesta: k-grid: Number of k-points = 1
siesta: k-points from Monkhorst-Pack grid
siesta: k-cutoff (effective) =    11.733 Ang
siesta: k-point supercell and displacements
siesta: k-grid:     1     0     0      0.000
siesta: k-grid:     0     1     0      0.000
siesta: k-grid:     0     0     1      0.000

diag: Algorithm                                     = D&C
diag: Parallel over k                               =   F
diag: Use parallel 2D distribution                  =   T
diag: Parallel block-size                           = 51
diag: Parallel distribution                         =     8 x     8
diag: Used triangular part                          = Lower
diag: Absolute tolerance                            =  0.100E-15
diag: Orthogonalization factor                      =  0.100E-05

siesta: Constraint v=[  0.00000,  0.00000,  1.00000] (364): center-dir
  [ 1 -- 364 ]

ts: **************************************************************
ts: Save H and S matrices                           =    F
ts: Save DM and EDM matrices                        =    F
ts: Only save the overlap matrix S                  =    F
ts: **************************************************************

************************ Begin: TS CHECKS AND WARNINGS ************************
************************ End: TS CHECKS AND WARNINGS **************************

                        Begin CG opt. move =      0

outcell: Unit cell vectors (Ang):
       23.434647   -1.230000    0.000000
       12.782535   19.680000    0.000000
        0.000000    0.000000   40.000000

outcell: Cell vector modules (Ang)   :   23.466904   23.466904   40.000000
outcell: Cell angles (23,13,12) (deg):     90.0000     90.0000     60.0000
outcell: Cell volume (Ang**3)        :  19076.6552
<dSpData1D:S at geom step 0
  <sparsity:sparsity for geom step 0
    nrows_g=3276 nrows=63 sparsity=.0056 nnzs=60247, refcount: 7>
  <dData1D:(new from dSpData1D) n=60247, refcount: 1>
refcount: 1>
new_DM -- step:     1
Initializing Density Matrix...

Attempting to read DM from file... Failed...
DM filled with atomic data:
<dSpData2D:DM initialized from atoms
  <sparsity:sparsity for geom step 0
    nrows_g=3276 nrows=63 sparsity=.0056 nnzs=60247, refcount: 8>
  <dData2D:DM n=60247 m=1, refcount: 1>
refcount: 1>
No. of atoms with KB's overlaping orbs in proc 0. Max # of overlaps:     123     231

InitMesh: MESH = 216 x 216 x 432 = 20155392
InitMesh: Mesh cutoff (required, used) =   300.000   312.203 Ry
New grid distribution [1]: sub = 2
New grid distribution [2]: sub = 2
New grid distribution [3]: sub = 2
Setting up quadratic distribution...

stepf: Fermi-Dirac step function

siesta: Program's energy decomposition (eV):
siesta: Ebs     =    -21264.886636
siesta: Eions   =    102706.861614
siesta: Ena     =     22680.351021
siesta: Ekin    =     40105.641107
siesta: Enl     =     -1804.230140
siesta: Eso     =         0.000000
siesta: Edftu   =         0.000000
siesta: DEna    =      3082.287944
siesta: DUscf   =       197.395022
siesta: DUext   =         0.000000
siesta: Ex      =    -19186.563130
siesta: Ec      =     -1850.321475
siesta: Exc     =    -21036.884605
siesta: EbV     =         0.000000
siesta: eta*DQ  =         0.000000
siesta: Emadel  =         0.000000
siesta: Emeta   =         0.000000
siesta: Emolmec =         0.000000
siesta: Ekinion =         0.000000
siesta: Eharris =    -60922.114198
siesta: Etot    =    -59482.301265
siesta: FreeEng =    -59482.301265

SCF Convergence by DM+H criterion
max |DM_out - DM_in|         :     0.0000458171
max |H_out - H_in|      (eV) :     0.0002625031
SCF cycle converged after 11 iterations

Using DM_out to compute the final energy and forces
No. of atoms with KB's overlaping orbs in proc 0. Max # of overlaps:     123     231
System symmetry is of type slab but no DFTD3.Periodic list was found. Attempting to guess symmetry for D3.
Could not guess the right amount of periodicity directions for D3.
Enabling periodicity on all directions.

siesta: E_KS(eV) =           -59548.5282

siesta: E_KS - E_eggbox =    -59548.5282

siesta: Atomic forces (eV/Ang):
   Tot   -0.000977   -0.001198   -0.002009
   Max    0.938817
   Res    0.176835    sqrt( Sum f_i^2 / 3N )
   Max    0.938817    constrained

Stress tensor Voigt[x,y,z,yz,xz,xy] (kbar):      -25.63      -25.65       -4.65       -0.00        0.00        0.01
(Free)E + p*V (eV/cell)   -59326.5199
Target enthalpy (eV/cell)   -59548.5282

[...]

outcell: Cell vector modules (Ang)   :   23.466904   23.466904   40.000000
outcell: Cell angles (23,13,12) (deg):     90.0000     90.0000     60.0000
outcell: Cell volume (Ang**3)        :  19076.6552
<dSpData1D:S at geom step 1
  <sparsity:sparsity for geom step 1
    nrows_g=3276 nrows=63 sparsity=.0056 nnzs=60170, refcount: 7>
  <dData1D:(new from dSpData1D) n=60170, refcount: 1>
refcount: 1>
new_DM -- step:     2
Re-using DM from previous geometries...
Number of DMs in history: 1
 DM extrapolation coefficients:
1   1.00000
New DM after history re-use:
<dSpData2D:SpM extrapolated using coords
  <sparsity:sparsity for geom step 1
    nrows_g=3276 nrows=63 sparsity=.0056 nnzs=60170, refcount: 9>
  <dData2D:(temp array for extrapolation) n=60170 m=1, refcount: 1>
refcount: 1>
No. of atoms with KB's overlaping orbs in proc 0. Max # of overlaps:     121     230

[...]

        iscf     Eharris(eV)        E_KS(eV)     FreeEng(eV)     dDmax    Ef(eV) dHmax(eV)
   scf:    1   -59549.654809   -59549.200017   -59549.200017  0.025872 -3.985715  0.526899
   scf:    2   -59545.066267   -59547.923358   -59547.923358  0.025165 -4.021463  2.245116
   scf:    3   -59549.439252   -59549.251092   -59549.251092  0.020640 -3.982753  0.080058
   scf:    4   -59549.254648   -59549.253210   -59549.253210  0.001176 -3.982465  0.015776
   scf:    5   -59549.254485   -59549.253889   -59549.253889  0.000324 -3.982284  0.009306
   scf:    6   -59549.254466   -59549.254204   -59549.254204  0.000326 -3.982140  0.003848
   scf:    7   -59549.254249   -59549.254229   -59549.254229  0.000074 -3.982117  0.001594
   scf:    8   -59549.254239   -59549.254235   -59549.254235  0.000035 -3.982105  0.000447

[...]

cgvc: Finished line minimization    1.  Mean atomic displacement =    0.0245

[...]

cgvc: Finished line minimization   32.  Mean atomic displacement =    0.0006

                        Begin CG opt. move =     78

outcell: Unit cell vectors (Ang):
       23.434647   -1.230000    0.000000
       12.782535   19.680000    0.000000
        0.000000    0.000000   40.000000

outcell: Cell vector modules (Ang)   :   23.466904   23.466904   40.000000
outcell: Cell angles (23,13,12) (deg):     90.0000     90.0000     60.0000
outcell: Cell volume (Ang**3)        :  19076.6552
<dSpData1D:S at geom step 78
  <sparsity:sparsity for geom step 78
    nrows_g=3276 nrows=63 sparsity=.0055 nnzs=59290, refcount: 7>
  <dData1D:(new from dSpData1D) n=59290, refcount: 1>
refcount: 1>
new_DM -- step:    79
Re-using DM from previous geometries...
Number of DMs in history: 1
 DM extrapolation coefficients:
1   1.00000
New DM after history re-use:
<dSpData2D:SpM extrapolated using coords
  <sparsity:sparsity for geom step 78
    nrows_g=3276 nrows=63 sparsity=.0055 nnzs=59290, refcount: 9>
  <dData2D:(temp array for extrapolation) n=59290 m=1, refcount: 1>
refcount: 1>
No. of atoms with KB's overlaping orbs in proc 0. Max # of overlaps:     119     227

InitMesh: MESH = 216 x 216 x 432 = 20155392
InitMesh: Mesh cutoff (required, used) =   300.000   312.203 Ry
New grid distribution [1]: sub = 2
New grid distribution [2]: sub = 2
New grid distribution [3]: sub = 2
Setting up quadratic distribution...

        iscf     Eharris(eV)        E_KS(eV)     FreeEng(eV)     dDmax    Ef(eV) dHmax(eV)
   scf:    1   -59549.496804   -59549.493999   -59549.493999  0.001113 -3.939469  0.004907
   scf:    2   -59549.493512   -59549.493862   -59549.493862  0.000412 -3.939530  0.020134
   scf:    3   -59549.494041   -59549.494019   -59549.494019  0.000322 -3.939476  0.001015
   scf:    4   -59549.494021   -59549.494020   -59549.494020  0.000027 -3.939472  0.000411

SCF Convergence by DM+H criterion
max |DM_out - DM_in|         :     0.0000267649
max |H_out - H_in|      (eV) :     0.0004105182
SCF cycle converged after 4 iterations

Using DM_out to compute the final energy and forces
No. of atoms with KB's overlaping orbs in proc 0. Max # of overlaps:     119     227
System symmetry is of type slab but no DFTD3.Periodic list was found. Attempting to guess symmetry for D3.
Could not guess the right amount of periodicity directions for D3.
Enabling periodicity on all directions.

siesta: E_KS(eV) =           -59549.4926

siesta: Atomic forces (eV/Ang):
   Tot    0.000378    0.000215    0.002640
   Max    0.008080
   Res    0.002036    sqrt( Sum f_i^2 / 3N )
   Max    0.008079    constrained

Stress tensor Voigt[x,y,z,yz,xz,xy] (kbar):      -25.89      -25.89       -4.14       -0.00        0.00        0.00
(Free)E + p*V (eV/cell)   -59327.5447
Target enthalpy (eV/cell)   -59549.4926

outcoor: Relaxed atomic coordinates (Ang):
    1.42040227    0.00088846   18.17344427   1       1  C
    5.68140650    0.00256300   18.21429197   1       2  C
    9.94186825    0.00131911   18.26712816   1       3  C
   14.20246753   -0.00159438   18.25966709   1       4  C
   18.46274797   -0.00262538   18.20862583   1       5  C
   22.72353398   -0.00050777   18.17548272   1       6  C
    3.55027472    1.23211036   18.19286618   1       7  C
    7.81120769    1.23228559   18.24691429   1       8  C
   12.07190708    1.22986910   18.27207313   1       9  C
   16.33215426    1.22760732   18.24109038   1      10  C
   20.59233899    1.22825592   18.19332298   1      11  C
   24.85336784    1.23097074   18.18450916   1      12  C
    5.68030673    2.46249594   18.22403700   1      13  C
    9.94136221    2.46122833   18.27102589   1      14  C
   14.20190159    2.45866598   18.26539673   1      15  C
   18.46176612    2.45779779   18.22368218   1      16  C
   22.72209314    2.45961522   18.19422205   1      17  C
    3.54900769    3.69185325   18.21053011   1      18  C
    7.81064229    3.69195510   18.25717144   1      19  C
   12.07174001    3.68988092   18.27694189   1      20  C
   16.33176551    3.68805761   18.25535842   1      21  C
   20.59151347    3.68859620   18.21712363   1      22  C
   24.85240520    3.69068310   18.20943113   1      23  C
    5.67976851    4.92187226   18.24150037   1      24  C
    9.94152328    4.92087771   18.27545431   1      25  C
   14.20214880    4.91886029   18.27494091   1      26  C
   18.46168091    4.91832063   18.24628467   1      27  C
   22.72165741    4.91964171   18.22198902   1      28  C
   26.98326019    4.92114801   18.23383593   1      29  C
    7.81086471    6.15120536   18.26627544   1      30  C
   12.07241156    6.14983793   18.27918408   1      31  C
   16.33229926    6.14862612   18.26889400   1      32  C
   20.59165260    6.14911819   18.24383181   1      33  C
   24.85240486    6.15030113   18.23771889   1      34  C
    5.67997087    7.38084649   18.25749240   1      35  C
    9.94232329    7.38033002   18.27342477   1      36  C
   14.20307629    7.37918843   18.27792824   1      37  C
   18.46241410    7.37901420   18.26424895   1      38  C
   22.72216731    7.37978596   18.25044729   1      39  C
   26.98376312    7.38021293   18.25625874   1      40  C
    7.81179786    8.61023568   18.26738558   1      41  C
   12.07358381    8.60971656   18.27189393   1      42  C
   16.33347762    8.60939220   18.27187377   1      43  C
   20.59270058    8.60980284   18.26440637   1      44  C
   24.85326438    8.60992319   18.26168731   1      45  C
   29.11553153    8.60969441   18.26472744   1      46  C
    9.94345179    9.83971278   18.26230289   1      47  C
   14.20428577    9.83974995   18.26523583   1      48  C
   18.46364338    9.84010506   18.26710808   1      49  C
   22.72327869    9.84011792   18.27030448   1      50  C
   26.98474038    9.83931556   18.26802321   1      51  C
    7.81281246   11.06908345   18.25613059   1      52  C
   12.07462930   11.06946949   18.25055068   1      53  C
   16.33465174   11.07024444   18.25669715   1      54  C
   20.59398773   11.07053347   18.26951958   1      55  C
   24.85440992   11.06961177   18.27381173   1      56  C
   29.11657515   11.06862031   18.25968084   1      57  C
    9.94429887   12.29885913   18.23930246   1      58  C
   14.20527575   12.29999752   18.23730031   1      59  C
   18.46482775   12.30102933   18.25456279   1      60  C
[...]
   19.58629640   16.48799702   21.76266861   1     350  C
   23.82411559   16.04402674   21.73213411   1     351  C
   28.06133139   15.60031037   21.75165939   1     352  C
   32.29783473   15.15406758   21.79312861   1     353  C
   13.35905416   18.38203790   21.82397057   1     354  C
   17.59670378   17.93399459   21.79501679   1     355  C
   21.83423262   17.48893834   21.74589681   1     356  C
   26.07175534   17.04573628   21.74007397   1     357  C
   30.30871332   16.60098526   21.78006167   1     358  C
   34.54547348   16.15327129   21.81556835   1     359  C
   15.60759710   19.38092489   21.81875017   1     360  C
   19.84477800   18.93430286   21.77098626   1     361  C
   24.08215299   18.49059383   21.73747897   1     362  C
   28.31948133   18.04712893   21.76130477   1     363  C
   32.55644254   17.60088079   21.80726429   1     364  C

siesta: Program's energy decomposition (eV):
siesta: Ebs     =    -19318.488935
siesta: Eions   =    102706.861614
siesta: Ena     =     22679.417917
siesta: Ekin    =     41369.265158
siesta: Enl     =     -2098.876106
siesta: Eso     =         0.000000
siesta: Edftu   =         0.000000
siesta: DEna    =      2383.806858
siesta: DUscf   =       121.191808
siesta: DUext   =         0.000000
siesta: Ex      =    -19415.589725
siesta: Ec      =     -1846.273459
siesta: Exc     =    -21261.863184
siesta: EbV     =         0.000000
siesta: eta*DQ  =         0.000000
siesta: Emadel  =         0.000000
siesta: Emeta   =         0.000000
siesta: Emolmec =         0.000000
siesta: Ekinion =         0.000000
siesta: Eharris =    -59549.494021
siesta: Etot    =    -59549.492560
siesta: FreeEng =    -59549.492560

siesta: Final energy (eV):
siesta:  Band Struct. =  -19318.488935
siesta:       Kinetic =   41369.265158
siesta:       Hartree =  964366.394291
siesta:         Edftu =       0.000000
siesta:       Eso     =       0.000000
siesta:    Ext. field =       0.000000
siesta:         Exch. =  -19415.589725
siesta:         Corr. =   -1846.273459
siesta:     Bulk bias =       0.000000
siesta:   Exch.-corr. =  -21261.863184
siesta:  Ion-electron =-1966175.113187
siesta:       Ion-ion =  922187.397759
siesta:       Ekinion =       0.000000
siesta: D3 dispersion =     -35.573398
siesta:         Total =  -59549.492560
siesta:         Fermi =      -3.939472

siesta: Stress tensor (static) (eV/Ang**3):
siesta:    -0.016159    0.000001    0.000000
siesta:     0.000001   -0.016161   -0.000000
siesta:     0.000000   -0.000000   -0.002584

siesta: Cell volume =      19076.655174 Ang**3

siesta: Pressure (static):
siesta:                Solid            Molecule  Units
siesta:           0.00012672          0.00012670  Ry/Bohr**3
siesta:           0.01163453          0.01163327  eV/Ang**3
siesta:          18.64056553         18.63854973  kBar
(Free)E+ p_basis*V_orbitals  =      -59330.129427
(Free)Eharris+ p_basis*V_orbitals  =      -59330.130888

siesta: Electric dipole (a.u.)  =    0.000000    0.000000   -0.000056
siesta: Electric dipole (Debye) =    0.000000    0.000000   -0.000144

cite: Please see "Graphene.bib" for an exhaustive BiBTeX file.
cite: Please clearly indicate Siesta version in published work: 5.0.0-alpha-112-g6e4f53aee-dirty
cite: This calculation has made use of the following articles
cite: which are encouraged to be cited in a published work.
        Primary SIESTA paper
          DOI: www.doi.org/10.1088/0953-8984/14/11/302

>> End of run:   1-DEC-2024  15:13:53
Job completed