Runtime information:
* Directory : /n/holylabs/LABS/kaxiras_lab/axzhu/projects/AM207-final-project/N_4
>> Start of run:   1-DEC-2024  14:23:48

reinit: Reading from standard input
reinit: Dumping input in INPUT_TMP.81061
************************** Dump of input data file ****************************
#	Basic Information	#
SystemName      Graphene
SystemLabel     Graphene
#	Structural Information		#
%include structure.fdf
#       DFT Parameters          #
SolutionMethod diagon           # Method of solving system. Can change to OrderN, transiesta, etc.
#Diag.Algorithm MRRR
#NumberOfEigenStates -20 # this will include first 10 conduction bands
XC.Functional   GGA
XC.Authors      PBE
DFTD3 true
Spin non-polarized
Mesh.Cutoff 300 Ry              # Cut off plane waves with kinetic energy higher than this.
MaxSCFIterations 300            # Max number of iterations in the SCF loop.
DM.UseSaveDM true
MinSCFIterations       3
SCF.DM.Tolerance       0.0001
SCF.Mixer.Weight       0.10
SCF.Mixer.History      12
SCF.Mix.First          true
#             Basis             #
#PAO.BasisSize   DZP
PAO.Basis < basis.fdf
#	k-points, Bands, DOS		#
%block kgrid_Monkhorst_Pack
   1  0  0  0.0
   0  1  0  0.0
   0  0  1  0.0
%endblock kgrid_Monkhorst_Pack
#BandLinesScale ReciprocalLatticeVectors
#%block BandLines
#1   0.6666666667  0.3333333333  0.0000000000  K
#10  0.0000000000  0.0000000000  0.0000000000  Gamma
#10  0.5000000000  0.0000000000  0.0000000000  M
#10  0.6666666667  0.3333333333  0.0000000000  K
#%endblock BandLines
# Local density of states (LDOS)
# %block LocalDensityOfStates
# EF 8.40 8.50 eV
# %endblock LocalDensityOfStates
#             Wavefunctions             #
#WaveFuncKPointsScale ReciprocalLatticeVectors
#%block WaveFuncKPoints
#0.666 0.333 0.000 from 4375 to 4378 # K wavefuncs 4375 to 4378
#0.000 0.000 0.000 from 4375 to 4378 # Gamma wavefuncs 4375 to 4378
#0.500 0.000 0.000 from 4375 to 4378 # M wavefuncs 4375 to 4378
#%endblock WaveFuncKPoints
#WriteDenchar T
#       Geometry Optimisation           #
MD.UseSaveXV true
MD.TypeOfRun           CG                  # Conjugate Gradient
MD.NumCGsteps          200                 # Max number of steps
MD.MaxForceTol         0.01    eV/Ang      # 10 meV/Ang
MD.VariableCell        false               # Don't relax cell
MD.MaxCGDispl          0.5 Bohr            # Maximum displacement of any atom
# Fix COM in Z direction only
%block Geometry.Constraints
 center all 0.0 0.0 1.0
%endblock Geometry.Constraints
************************** End of input data file *****************************

reinit: -----------------------------------------------------------------------
reinit: System Name: Graphene
reinit: -----------------------------------------------------------------------
reinit: System Label: Graphene
reinit: -----------------------------------------------------------------------

initatom: Reading input for the pseudopotentials and atomic orbitals ----------
Species number:   1 Atomic number:    6 Label: C

---- Processing specs for species: C
Ground state valence configuration:   2s02  2p02
Reading pseudopotential information in PSML from:
  C.psml
PSML file version: 1.1
GGA--PBE XC_GGA_X_PBE--XC_GGA_C_PBE pb
 Using ATOM defaults for log grid...
PSML uuid: 297821e0-be41-11e7-6802-e1ff7dfff095

---- Pseudopotential check for C

Pseudized shells:
2s( 2.00) rc: 1.20
2p( 2.00) rc: 1.26
Valence configuration for ps generation: 2s:2p: Total charge:   4.000000
For C, standard SIESTA heuristics set lmxkb to 3
 (one more than the basis l, including polarization orbitals).
Use PS.lmax or PS.KBprojectors blocks to override.
C pseudopotential only contains V_ls up to l=1 -- lmxkb reset.

<basis_specs>
C                    Z=   6    Mass=  12.011        Charge= 0.99941
Lmxo=2 Lmxkb= 1    BasisType=split      Semic=F
L=0  Nsemic=0  Cnfigmx=2
          i=1  nzeta=1  polorb=0  (2s)
            splnorm:   0.15000
               vcte:    132.57
               rinn:    4.5256
               qcoe:    0.0000
               qyuk:    0.0000
               qwid:   0.10000E-01
                rcs:    6.0009
            lambdas:    1.0000
L=1  Nsemic=0  Cnfigmx=2
          i=1  nzeta=1  polorb=0  (2p)
            splnorm:   0.15000
               vcte:    6.0639
               rinn:    6.0646
               qcoe:    0.0000
               qyuk:    0.0000
               qwid:   0.10000E-01
                rcs:    6.7108
            lambdas:    1.0000
L=2  Nsemic=0  Cnfigmx=3
          i=1  nzeta=1  polorb=0  (3d)
            splnorm:   0.15000
               vcte:    14.478
               rinn:    4.3208
               qcoe:    0.0000
               qyuk:    0.0000
               qwid:   0.10000E-01
                rcs:    6.2254
            lambdas:    1.0000
L=0  Nkbl=1  erefs: 0.17977+309
L=1  Nkbl=1  erefs: 0.17977+309
</basis_specs>

atom: Called for C                     (Z =   6)
NOTE: C pseudopotential has channels up to l= 1
NOTE: PAOs with higher l will be generated with V_local

read_vps: Pseudopotential generation method:
read_vps: ONCVPSP-3.Hamann's oncvpsp
Valence charge in pseudo generation:    4.00000

read_vps: Pseudopotential includes a core correction:
read_vps: Pseudo-core for xc-correction

xc_check: Exchange-correlation functional:
xc_check: GGA Perdew, Burke & Ernzerhof 1996
Got Vlocal (oncv-fit) from psml data
Choosing vlocal chloc cutoff:  4.139772
qtot up to nchloc:    3.99998844
atom: Maximum radius for chlocal:    4.13977
atom: Maximum radius for r*vlocal+2*Zval:    4.13977
Reading KB projs from C psml data
Using scalar-relativistic projectors in PSML file

PSML: Kleinman-Bylander projectors:
   l= 0   rc=  1.231096   Ekb= 12.963096
   l= 0   rc=  1.231096   Ekb=  0.771007
   l= 1   rc=  1.294237   Ekb= -8.399923
   l= 1   rc=  1.294237   Ekb= -1.755033

PSML: Total number of  Kleinman-Bylander projectors:   8
atom: -------------------------------------------------------------------------

atom: SANKEY-TYPE ORBITALS:

atom: basis set generated (by rescaling the valence charge)
atom: for a cation of charge   0.9994

SPLIT: Orbitals with angular momentum L= 0

SPLIT: Basis orbitals for state 2s

   izeta = 1
                 lambda =    1.000000
                     rc =    6.099293
                 energy =   -2.079355
                kinetic =    1.090115
    potential(screened) =   -3.169470
       potential(ionic) =   -5.727963

[...]

SPLIT: Basis orbitals for state 2p

   izeta = 1
                 lambda =    1.000000
                     rc =    6.740804
                 energy =   -1.441657
                kinetic =    3.222058
    potential(screened) =   -4.663715
       potential(ionic) =   -7.206130
*Note: V_local used for l= 2

** Using vlocal for PAOs with L= 2

SPLIT: Orbitals with angular momentum L= 2

SPLIT: Basis orbitals for state 3d

   izeta = 1
                 lambda =    1.000000
                     rc =    6.253707
                 energy =    0.017329
                kinetic =    1.197074
    potential(screened) =   -1.179745
       potential(ionic) =   -2.838380
atom: Total number of Sankey-type orbitals:  9

atm_pop: Valence configuration (for local Pseudopot. screening):
 2s( 2.00)
 2p( 2.00)
 3d( 0.00)
Vna: chval, zval:    4.00000   4.00000

Vna:  Cut-off radius for the neutral-atom potential:   6.740804
comcore: Pseudo-core radius Rcore=  1.682861

atom: _________________________________________________________________________

prinput: Basis input

PAO.BasisType split

%block ChemicalSpeciesLabel
    1    6 C                       # Species index, atomic number, species label
%endblock ChemicalSpeciesLabel

%block PAO.Basis                 # Define Basis set
# WARNING: This information might be incomplete!
C                     3   0.999            # Label, l-shells, ionic net charge
 n=2   0   1                         # n, l, Nzeta
   6.099
   1.000
 n=2   1   1                         # n, l, Nzeta
   6.741
   1.000
 n=3   2   1                         # n, l, Nzeta
   6.254
   1.000
%endblock PAO.Basis

prinput: ----------------------------------------------------------------------

Dumping basis to NetCDF file C.ion.nc
coor:   Atomic-coordinates input format  =     Cartesian coordinates
coor:                                          (in Angstroms)

siesta: WARNING: XV file not found

siesta: Atomic coordinates (Bohr) and species
siesta:      2.68394   0.00000  34.51400  1        1
siesta:     10.73577   0.00000  34.57777  1        2
siesta:     18.78760   0.00000  34.55410  1        3
siesta:     26.83943   0.00000  34.50719  1        4
siesta:      6.70986   2.32436  34.53623  1        5
siesta:     14.76169   2.32436  34.59127  1        6
siesta:     22.81352   2.32436  34.53100  1        7
siesta:     30.86535   2.32436  34.56206  1        8
siesta:     10.73577   4.64873  34.57384  1        9
siesta:     18.78760   4.64873  34.62101  1       10
siesta:     26.83943   4.64873  34.57414  1       11
siesta:      6.70986   6.97309  34.57790  1       12
siesta:     14.76169   6.97309  34.54466  1       13
siesta:     22.81352   6.97309  34.58010  1       14
siesta:     30.86535   6.97309  34.57132  1       15
siesta:     10.73577   9.29745  34.55063  1       16
siesta:     18.78760   9.29745  34.59444  1       17
siesta:     26.83943   9.29745  34.59787  1       18
siesta:     34.89126   9.29745  34.52951  1       19
siesta:     14.76169  11.62182  34.52043  1       20
siesta:     22.81352  11.62182  34.54706  1       21
siesta:     30.86535  11.62182  34.59695  1       22
siesta:     10.73577  13.94618  34.54986  1       23
siesta:     18.78760  13.94618  34.51792  1       24
siesta:     26.83943  13.94618  34.50589  1       25
siesta:     34.89126  13.94618  34.55981  1       26
siesta:     14.76169  16.27054  34.58399  1       27
siesta:     22.81352  16.27054  34.55286  1       28
siesta:     30.86535  16.27054  34.56017  1       29
siesta:     38.91718  16.27054  34.52978  1       30
siesta:     18.78760  18.59491  34.55714  1       31
siesta:     26.83943  18.59491  34.52612  1       32
siesta:     34.89126  18.59491  34.61289  1       33
siesta:     14.76169  20.91927  34.53911  1       34
siesta:     22.81352  20.91927  34.57984  1       35
siesta:     30.86535  20.91927  34.56250  1       36
siesta:     38.91718  20.91927  34.52947  1       37
siesta:      5.36789   0.00000  34.53999  1       38
siesta:     13.41972   0.00000  34.52885  1       39
siesta:     21.47155   0.00000  34.51547  1       40
siesta:     29.52338   0.00000  34.51661  1       41
siesta:      9.39380   2.32436  34.58365  1       42
siesta:     17.44563   2.32436  34.56268  1       43
siesta:     25.49746   2.32436  34.50162  1       44
siesta:      5.36789   4.64873  34.47013  1       45
siesta:     13.41972   4.64873  34.49420  1       46
siesta:     21.47155   4.64873  34.53928  1       47
siesta:     29.52338   4.64873  34.51918  1       48
siesta:      9.39380   6.97309  34.50913  1       49
siesta:     17.44563   6.97309  34.56164  1       50
siesta:     25.49746   6.97309  34.57112  1       51
siesta:     33.54929   6.97309  34.59846  1       52
siesta:     13.41972   9.29745  34.54242  1       53
[...]
diag: Used triangular part                          = Lower
diag: Absolute tolerance                            =  0.100E-15
diag: Orthogonalization factor                      =  0.100E-05

siesta: Constraint v=[  0.00000,  0.00000,  1.00000] (148): center-dir
  [ 1 -- 148 ]

ts: **************************************************************
ts: Save H and S matrices                           =    F
ts: Save DM and EDM matrices                        =    F
ts: Only save the overlap matrix S                  =    F
ts: **************************************************************

************************ Begin: TS CHECKS AND WARNINGS ************************
************************ End: TS CHECKS AND WARNINGS **************************

                        Begin CG opt. move =      0

outcell: Unit cell vectors (Ang):
       14.912957   -1.230000    0.000000
        8.521690   12.300000    0.000000
        0.000000    0.000000   40.000000

outcell: Cell vector modules (Ang)   :   14.963596   14.963596   40.000000
outcell: Cell angles (23,13,12) (deg):     90.0000     90.0000     60.0000
outcell: Cell volume (Ang**3)        :   7756.4422
<dSpData1D:S at geom step 0
  <sparsity:sparsity for geom step 0
    nrows_g=1332 nrows=40 sparsity=.0217 nnzs=38490, refcount: 7>
  <dData1D:(new from dSpData1D) n=38490, refcount: 1>
refcount: 1>
new_DM -- step:     1
Initializing Density Matrix...

Attempting to read DM from file... Failed...
DM filled with atomic data:
<dSpData2D:DM initialized from atoms
  <sparsity:sparsity for geom step 0
    nrows_g=1332 nrows=40 sparsity=.0217 nnzs=38490, refcount: 8>
  <dData2D:DM n=38490 m=1, refcount: 1>
refcount: 1>
No. of atoms with KB's overlaping orbs in proc 0. Max # of overlaps:      93     231

InitMesh: MESH = 144 x 144 x 432 = 8957952
InitMesh: Mesh cutoff (required, used) =   300.000   322.366 Ry
New grid distribution [1]: sub = 2
New grid distribution [2]: sub = 2
New grid distribution [3]: sub = 2
Setting up quadratic distribution...

stepf: Fermi-Dirac step function

siesta: Program's energy decomposition (eV):
siesta: Ebs     =     -8651.378733
siesta: Eions   =     41759.932744
siesta: Ena     =      9221.624460
siesta: Ekin    =     16306.291377
siesta: Enl     =      -733.827415
siesta: Eso     =         0.000000
siesta: Edftu   =         0.000000
siesta: DEna    =      1252.555222
siesta: DUscf   =        80.144925
siesta: DUext   =         0.000000
siesta: Ex      =     -7801.378651
siesta: Ec      =      -752.370332
siesta: Exc     =     -8553.748983
siesta: EbV     =         0.000000
siesta: eta*DQ  =         0.000000
siesta: Emadel  =         0.000000
siesta: Emeta   =         0.000000
siesta: Emolmec =         0.000000
siesta: Ekinion =         0.000000
siesta: Eharris =    -24774.111004
siesta: Etot    =    -24186.893160
siesta: FreeEng =    -24186.893160

SCF Convergence by DM+H criterion
max |DM_out - DM_in|         :     0.0000892805
max |H_out - H_in|      (eV) :     0.0005560888
SCF cycle converged after 10 iterations

Using DM_out to compute the final energy and forces
No. of atoms with KB's overlaping orbs in proc 0. Max # of overlaps:      93     231
System symmetry is of type slab but no DFTD3.Periodic list was found. Attempting to guess symmetry for D3.
Could not guess the right amount of periodicity directions for D3.
Enabling periodicity on all directions.

siesta: E_KS(eV) =           -24213.7878

siesta: E_KS - E_eggbox =    -24213.7878

siesta: Atomic forces (eV/Ang):
   Tot    0.000307    0.000278   -0.000915
   Max    0.723734
   Res    0.168497    sqrt( Sum f_i^2 / 3N )
   Max    0.723734    constrained

Stress tensor Voigt[x,y,z,yz,xz,xy] (kbar):      -24.84      -24.82       -4.87       -0.00       -0.00       -0.00
(Free)E + p*V (eV/cell)   -24125.7934
Target enthalpy (eV/cell)   -24213.7878

[...]

outcell: Cell vector modules (Ang)   :   14.963596   14.963596   40.000000
outcell: Cell angles (23,13,12) (deg):     90.0000     90.0000     60.0000
outcell: Cell volume (Ang**3)        :   7756.4422
<dSpData1D:S at geom step 1
  <sparsity:sparsity for geom step 1
    nrows_g=1332 nrows=40 sparsity=.0217 nnzs=38472, refcount: 7>
  <dData1D:(new from dSpData1D) n=38472, refcount: 1>
refcount: 1>
new_DM -- step:     2
Re-using DM from previous geometries...
Number of DMs in history: 1
 DM extrapolation coefficients:
1   1.00000
New DM after history re-use:
<dSpData2D:SpM extrapolated using coords
  <sparsity:sparsity for geom step 1
    nrows_g=1332 nrows=40 sparsity=.0217 nnzs=38472, refcount: 9>
  <dData2D:(temp array for extrapolation) n=38472 m=1, refcount: 1>
refcount: 1>
No. of atoms with KB's overlaping orbs in proc 0. Max # of overlaps:      93     231

[...]

        iscf     Eharris(eV)        E_KS(eV)     FreeEng(eV)     dDmax    Ef(eV) dHmax(eV)
   scf:    1   -24214.252520   -24213.812503   -24213.812503  0.029001 -4.493690  0.671354
   scf:    2   -24210.461721   -24212.803712   -24212.803712  0.034362 -4.544161  2.570092
   scf:    3   -24214.065456   -24213.877929   -24213.877929  0.027448 -4.493638  0.071136
   scf:    4   -24213.881305   -24213.880027   -24213.880027  0.001357 -4.493530  0.026019
   scf:    5   -24213.881176   -24213.880656   -24213.880656  0.000852 -4.493500  0.007915
   scf:    6   -24213.880794   -24213.880732   -24213.880732  0.000264 -4.493527  0.004289
   scf:    7   -24213.880760   -24213.880749   -24213.880749  0.000129 -4.493511  0.000906
   scf:    8   -24213.880752   -24213.880750   -24213.880750  0.000031 -4.493506  0.000446

[...]

cgvc: Finished line minimization    1.  Mean atomic displacement =    0.0226

[...]

outcell: Cell vector modules (Ang)   :   14.963596   14.963596   40.000000
outcell: Cell angles (23,13,12) (deg):     90.0000     90.0000     60.0000
outcell: Cell volume (Ang**3)        :   7756.4422
Gamma-point calculation with multiply-connected orbital pairs
Folding of H and S implicitly performed
<dSpData1D:S at geom step 3
  <sparsity:sparsity for geom step 3
    nrows_g=1332 nrows=40 sparsity=.0218 nnzs=38678, refcount: 7>
  <dData1D:(new from dSpData1D) n=38678, refcount: 1>
refcount: 1>
new_DM -- step:     4
Re-using DM from previous geometries...
Number of DMs in history: 1
 DM extrapolation coefficients:
1   1.00000
New DM after history re-use:
<dSpData2D:SpM extrapolated using coords
  <sparsity:sparsity for geom step 3
    nrows_g=1332 nrows=40 sparsity=.0218 nnzs=38678, refcount: 9>
  <dData2D:(temp array for extrapolation) n=38678 m=1, refcount: 1>
refcount: 1>
No. of atoms with KB's overlaping orbs in proc 0. Max # of overlaps:      94     237

[...]

cgvc: Finished line minimization   26.  Mean atomic displacement =    0.0017

[...]

Using DM_out to compute the final energy and forces
No. of atoms with KB's overlaping orbs in proc 0. Max # of overlaps:      92     225
System symmetry is of type slab but no DFTD3.Periodic list was found. Attempting to guess symmetry for D3.
Periodicity direction guess succeeded.

[...]

                        Begin CG opt. move =     68

outcell: Unit cell vectors (Ang):
       14.912957   -1.230000    0.000000
        8.521690   12.300000    0.000000
        0.000000    0.000000   40.000000

outcell: Cell vector modules (Ang)   :   14.963596   14.963596   40.000000
outcell: Cell angles (23,13,12) (deg):     90.0000     90.0000     60.0000
outcell: Cell volume (Ang**3)        :   7756.4422
<dSpData1D:S at geom step 68
  <sparsity:sparsity for geom step 68
    nrows_g=1332 nrows=40 sparsity=.0213 nnzs=37878, refcount: 7>
  <dData1D:(new from dSpData1D) n=37878, refcount: 1>
refcount: 1>
new_DM -- step:    69
Re-using DM from previous geometries...
Number of DMs in history: 1
 DM extrapolation coefficients:
1   1.00000
New DM after history re-use:
<dSpData2D:SpM extrapolated using coords
  <sparsity:sparsity for geom step 68
    nrows_g=1332 nrows=40 sparsity=.0213 nnzs=37878, refcount: 9>
  <dData2D:(temp array for extrapolation) n=37878 m=1, refcount: 1>
refcount: 1>
No. of atoms with KB's overlaping orbs in proc 0. Max # of overlaps:      92     225

InitMesh: MESH = 144 x 144 x 432 = 8957952
InitMesh: Mesh cutoff (required, used) =   300.000   322.366 Ry
New grid distribution [1]: sub = 2
New grid distribution [2]: sub = 2
New grid distribution [3]: sub = 2
Setting up quadratic distribution...

        iscf     Eharris(eV)        E_KS(eV)     FreeEng(eV)     dDmax    Ef(eV) dHmax(eV)
   scf:    1   -24214.151153   -24214.154409   -24214.154409  0.002310 -3.765209  0.009413
   scf:    2   -24214.153631   -24214.154212   -24214.154212  0.000871 -3.765441  0.026624
   scf:    3   -24214.154523   -24214.154471   -24214.154471  0.000637 -3.765263  0.001383
   scf:    4   -24214.154476   -24214.154474   -24214.154474  0.000056 -3.765261  0.000569

SCF Convergence by DM+H criterion
max |DM_out - DM_in|         :     0.0000558714
max |H_out - H_in|      (eV) :     0.0005694630
SCF cycle converged after 4 iterations

Using DM_out to compute the final energy and forces
No. of atoms with KB's overlaping orbs in proc 0. Max # of overlaps:      92     225
System symmetry is of type slab but no DFTD3.Periodic list was found. Attempting to guess symmetry for D3.
Could not guess the right amount of periodicity directions for D3.
Enabling periodicity on all directions.

siesta: E_KS(eV) =           -24214.1565

siesta: Atomic forces (eV/Ang):
   Tot   -0.000036   -0.000211   -0.004093
   Max    0.008039
   Res    0.002862    sqrt( Sum f_i^2 / 3N )
   Max    0.008039    constrained

Stress tensor Voigt[x,y,z,yz,xz,xy] (kbar):      -25.09      -25.09       -4.15       -0.00       -0.00        0.00
(Free)E + p*V (eV/cell)   -24126.4741
Target enthalpy (eV/cell)   -24214.1565

outcoor: Relaxed atomic coordinates (Ang):
    1.42036048    0.00062056   18.18042727   1       1  C
    5.68109442    0.00093369   18.23556250   1       2  C
    9.94173762   -0.00092300   18.23008344   1       3  C
   14.20212017   -0.00034641   18.18243434   1       4  C
    3.55055673    1.23113153   18.20924266   1       5  C
    7.81130693    1.22999903   18.24826635   1       6  C
   12.07156430    1.22919431   18.21121973   1       7  C
   16.33236878    1.23058100   18.19844651   1       8  C
    5.68080467    2.46060780   18.24186208   1       9  C
    9.94145475    2.45942516   18.24127911   1      10  C
   14.20159012    2.45986203   18.21136851   1      11  C
    3.55017941    3.69057069   18.22939042   1      12  C
    7.81148019    3.68990714   18.25125897   1      13  C
   12.07166113    3.68971689   18.23463279   1      14  C
   16.33226775    3.69026384   18.23069322   1      15  C
    5.68119369    4.92001351   18.24702241   1      16  C
    9.94203913    4.91988721   18.24534958   1      17  C
   14.20192341    4.92004491   18.24255013   1      18  C
   18.46343470    4.91987733   18.24602123   1      19  C
    7.81219637    6.14976928   18.23854276   1      20  C
   12.07243186    6.15016179   18.24222827   1      21  C
   16.33285335    6.14987519   18.25253855   1      22  C
    5.68186024    7.37951147   18.23500520   1      23  C
    9.94292624    7.38019147   18.22413257   1      24  C
   14.20279929    7.38028140   18.25076980   1      25  C
   18.46412840    7.37939982   18.24354527   1      26  C
    7.81264472    8.60961861   18.20728712   1      27  C
   12.07301777    8.61070907   18.22571294   1      28  C
   16.33337068    8.60975606   18.25274509   1      29  C
   20.59474051    8.60899426   18.21103098   1      30  C
    9.94289078    9.84033173   18.19381755   1      31  C
   14.20309769    9.84066660   18.24119247   1      32  C
   18.46406355    9.83903339   18.23149889   1      33  C
    7.81204350   11.06950450   18.18121538   1      34  C
   12.07285522   11.07114004   18.20852740   1      35  C
   16.33339928   11.06994311   18.24582697   1      36  C
   20.59398295   11.06888561   18.19941537   1      37  C
    2.84066424    0.00105683   18.19549253   1      38  C
    7.10111726    0.00010471   18.24548530   1      39  C
   11.36171529   -0.00122784   18.21186083   1      40  C
   15.62252067    0.00037347   18.18199931   1      41  C
    4.97057994    1.23095692   18.22907248   1      42  C
    9.23139950    1.22914243   18.24173755   1      43  C
   13.49175127    1.22955015   18.19825712   1      44  C
    2.83989250    2.46099213   18.21026367   1      45  C
    7.10103864    2.46015871   18.25001498   1      46  C
   11.36163919    2.45927501   18.22899845   1      47  C
   15.62201629    2.46047846   18.21167584   1      48  C
    4.97054948    3.69062405   18.24121242   1      49  C
    9.23171705    3.68965132   18.24861980   1      50  C
   13.49184968    3.68985543   18.22946293   1      51  C
   17.75279247    3.69045439   18.23639297   1      52  C
    7.10170364    4.92004804   18.24852039   1      53  C
   11.36233878    4.91982644   18.24308414   1      54  C
   15.62232868    4.92019373   18.24318022   1      55  C
    4.97114378    6.15006150   18.24473820   1      56  C
    9.23265163    6.14999940   18.23732041   1      57  C
   13.49256253    6.15011387   18.24744087   1      58  C
   17.75336514    6.14993032   18.24955563   1      59  C
    7.10241224    7.37975756   18.22656073   1      60  C
[...]
   14.72133309    6.28276813   21.74901199   1     134  C
   18.92433345    5.58510586   21.75323357   1     135  C
    8.61649755    8.54339835   21.77479236   1     136  C
   12.82034020    7.84481998   21.75410397   1     137  C
   17.02423331    7.14759524   21.74961733   1     138  C
   10.91989536    9.40701881   21.77557405   1     139  C
   15.12385334    8.70962770   21.74996132   1     140  C
   19.32682333    8.01252905   21.76520258   1     141  C
    9.02009131   10.96997829   21.80031080   1     142  C
   13.22345468   10.27126904   21.76343554   1     143  C
   17.42694270    9.57484840   21.75797405   1     144  C
   21.62970816    8.87658504   21.78886117   1     145  C
   11.32378397   11.83357890   21.78782368   1     146  C
   15.52697040   11.13642509   21.75483840   1     147  C
   19.73004410   10.43959910   21.78202839   1     148  C

siesta: Program's energy decomposition (eV):
siesta: Ebs     =     -7857.801574
siesta: Eions   =     41759.932744
siesta: Ena     =      9221.311170
siesta: Ekin    =     16817.953063
siesta: Enl     =      -853.280492
siesta: Eso     =         0.000000
siesta: Edftu   =         0.000000
siesta: DEna    =       969.512988
siesta: DUscf   =        49.323635
siesta: DUext   =         0.000000
siesta: Ex      =     -7894.061231
siesta: Ec      =      -750.579009
siesta: Exc     =     -8644.640240
siesta: EbV     =         0.000000
siesta: eta*DQ  =         0.000000
siesta: Emadel  =         0.000000
siesta: Emeta   =         0.000000
siesta: Emolmec =         0.000000
siesta: Ekinion =         0.000000
siesta: Eharris =    -24214.154476
siesta: Etot    =    -24214.156484
siesta: FreeEng =    -24214.156484

siesta: Final energy (eV):
siesta:  Band Struct. =   -7857.801574
siesta:       Kinetic =   16817.953063
siesta:       Hartree =  391401.245351
siesta:         Edftu =       0.000000
siesta:       Eso     =       0.000000
siesta:    Ext. field =       0.000000
siesta:         Exch. =   -7894.061231
siesta:         Corr. =    -750.579009
siesta:     Bulk bias =       0.000000
siesta:   Exch.-corr. =   -8644.640240
siesta:  Ion-electron = -798027.228900
siesta:       Ion-ion =  374252.918106
siesta:       Ekinion =       0.000000
siesta: D3 dispersion =     -14.403864
siesta:         Total =  -24214.156484
siesta:         Fermi =      -3.765261

siesta: Stress tensor (static) (eV/Ang**3):
siesta:    -0.015662    0.000002   -0.000000
siesta:     0.000002   -0.015662   -0.000000
siesta:    -0.000000   -0.000000   -0.002589

siesta: Cell volume =       7756.442214 Ang**3

siesta: Pressure (static):
siesta:                Solid            Molecule  Units
siesta:           0.00012312          0.00012291  Ry/Bohr**3
siesta:           0.01130446          0.01128493  eV/Ang**3
siesta:          18.11173533         18.08045045  kBar
(Free)E+ p_basis*V_orbitals  =      -24124.964881
(Free)Eharris+ p_basis*V_orbitals  =      -24124.962872

siesta: Electric dipole (a.u.)  =    0.000000   -0.000000   -0.000091
siesta: Electric dipole (Debye) =    0.000000   -0.000000   -0.000231

cite: Please see "Graphene.bib" for an exhaustive BiBTeX file.
cite: Please clearly indicate Siesta version in published work: 5.0.0-alpha-112-g6e4f53aee-dirty
cite: This calculation has made use of the following articles
cite: which are encouraged to be cited in a published work.
        Primary SIESTA paper
          DOI: www.doi.org/10.1088/0953-8984/14/11/302

>> End of run:   1-DEC-2024  14:38:53
Job completed