Runtime information:
* Directory : /n/holylabs/LABS/kaxiras_lab/axzhu/projects/AM207-final-project/N_4/unrelaxed
>> Start of run:  30-NOV-2024  17:08:11

reinit: Reading from standard input
reinit: Dumping input in INPUT_TMP.97603
************************** Dump of input data file ****************************
#	Basic Information	#
SystemName      Graphene
SystemLabel     Graphene
#	Structural Information		#
%include structure.fdf
#       DFT Parameters          #
SolutionMethod diagon           # Method of solving system. Can change to OrderN, transiesta, etc.
#Diag.Algorithm MRRR
#NumberOfEigenStates -20 # this will include first 10 conduction bands
XC.Functional   GGA
XC.Authors      PBE
DFTD3 true
Spin non-polarized
Mesh.Cutoff 300 Ry              # Cut off plane waves with kinetic energy higher than this.
MaxSCFIterations 300            # Max number of iterations in the SCF loop.
DM.UseSaveDM true
MinSCFIterations       3
SCF.DM.Tolerance       0.0001
SCF.Mixer.Weight       0.10
SCF.Mixer.History      12
SCF.Mix.First          true
#             Basis             #
#PAO.BasisSize   DZP
PAO.Basis < basis.fdf
#	k-points, Bands, DOS		#
%block kgrid_Monkhorst_Pack
   1  0  0  0.0
   0  1  0  0.0
   0  0  1  0.0
%endblock kgrid_Monkhorst_Pack
#BandLinesScale ReciprocalLatticeVectors
#%block BandLines
#1   0.6666666667  0.3333333333  0.0000000000  K
#10  0.0000000000  0.0000000000  0.0000000000  Gamma
#10  0.5000000000  0.0000000000  0.0000000000  M
#10  0.6666666667  0.3333333333  0.0000000000  K
#%endblock BandLines
# Local density of states (LDOS)
# %block LocalDensityOfStates
# EF 8.40 8.50 eV
# %endblock LocalDensityOfStates
#             Wavefunctions             #
#WaveFuncKPointsScale ReciprocalLatticeVectors
#%block WaveFuncKPoints
#0.666 0.333 0.000 from 4375 to 4378 # K wavefuncs 4375 to 4378
#0.000 0.000 0.000 from 4375 to 4378 # Gamma wavefuncs 4375 to 4378
#0.500 0.000 0.000 from 4375 to 4378 # M wavefuncs 4375 to 4378
#%endblock WaveFuncKPoints
#WriteDenchar T
#       Geometry Optimisation           #
MD.UseSaveXV true
MD.TypeOfRun           CG                  # Conjugate Gradient
MD.NumCGsteps          0                 # Max number of steps
MD.MaxForceTol         0.001    eV/Ang     # 1 meV/Ang
MD.VariableCell        false               # Don't relax cell
MD.MaxCGDispl          0.5 Bohr            # Maximum displacement of any atom
# Fix COM in Z direction only
%block Geometry.Constraints
 center all 0.0 0.0 1.0
%endblock Geometry.Constraints
************************** End of input data file *****************************

reinit: -----------------------------------------------------------------------
reinit: System Name: Graphene
reinit: -----------------------------------------------------------------------
reinit: System Label: Graphene
reinit: -----------------------------------------------------------------------

initatom: Reading input for the pseudopotentials and atomic orbitals ----------
Species number:   1 Atomic number:    6 Label: C

---- Processing specs for species: C
Ground state valence configuration:   2s02  2p02
Reading pseudopotential information in PSML from:
  C.psml
PSML file version: 1.1
GGA--PBE XC_GGA_X_PBE--XC_GGA_C_PBE pb
 Using ATOM defaults for log grid...
PSML uuid: 297821e0-be41-11e7-6802-e1ff7dfff095

---- Pseudopotential check for C

Pseudized shells:
2s( 2.00) rc: 1.20
2p( 2.00) rc: 1.26
Valence configuration for ps generation: 2s:2p: Total charge:   4.000000
For C, standard SIESTA heuristics set lmxkb to 3
 (one more than the basis l, including polarization orbitals).
Use PS.lmax or PS.KBprojectors blocks to override.
C pseudopotential only contains V_ls up to l=1 -- lmxkb reset.

<basis_specs>
C                    Z=   6    Mass=  12.011        Charge= 0.99941
Lmxo=2 Lmxkb= 1    BasisType=split      Semic=F
L=0  Nsemic=0  Cnfigmx=2
          i=1  nzeta=1  polorb=0  (2s)
            splnorm:   0.15000
               vcte:    132.57
               rinn:    4.5256
               qcoe:    0.0000
               qyuk:    0.0000
               qwid:   0.10000E-01
                rcs:    6.0009
            lambdas:    1.0000
L=1  Nsemic=0  Cnfigmx=2
          i=1  nzeta=1  polorb=0  (2p)
            splnorm:   0.15000
               vcte:    6.0639
               rinn:    6.0646
               qcoe:    0.0000
               qyuk:    0.0000
               qwid:   0.10000E-01
                rcs:    6.7108
            lambdas:    1.0000
L=2  Nsemic=0  Cnfigmx=3
          i=1  nzeta=1  polorb=0  (3d)
            splnorm:   0.15000
               vcte:    14.478
               rinn:    4.3208
               qcoe:    0.0000
               qyuk:    0.0000
               qwid:   0.10000E-01
                rcs:    6.2254
            lambdas:    1.0000
L=0  Nkbl=1  erefs: 0.17977+309
L=1  Nkbl=1  erefs: 0.17977+309
</basis_specs>

atom: Called for C                     (Z =   6)
NOTE: C pseudopotential has channels up to l= 1
NOTE: PAOs with higher l will be generated with V_local

read_vps: Pseudopotential generation method:
read_vps: ONCVPSP-3.Hamann's oncvpsp
Valence charge in pseudo generation:    4.00000

read_vps: Pseudopotential includes a core correction:
read_vps: Pseudo-core for xc-correction

xc_check: Exchange-correlation functional:
xc_check: GGA Perdew, Burke & Ernzerhof 1996
Got Vlocal (oncv-fit) from psml data
Choosing vlocal chloc cutoff:  4.139772
qtot up to nchloc:    3.99998844
atom: Maximum radius for chlocal:    4.13977
atom: Maximum radius for r*vlocal+2*Zval:    4.13977
Reading KB projs from C psml data
Using scalar-relativistic projectors in PSML file

PSML: Kleinman-Bylander projectors:
   l= 0   rc=  1.231096   Ekb= 12.963096
   l= 0   rc=  1.231096   Ekb=  0.771007
   l= 1   rc=  1.294237   Ekb= -8.399923
   l= 1   rc=  1.294237   Ekb= -1.755033

PSML: Total number of  Kleinman-Bylander projectors:   8
atom: -------------------------------------------------------------------------

atom: SANKEY-TYPE ORBITALS:

atom: basis set generated (by rescaling the valence charge)
atom: for a cation of charge   0.9994

SPLIT: Orbitals with angular momentum L= 0

SPLIT: Basis orbitals for state 2s

   izeta = 1
                 lambda =    1.000000
                     rc =    6.099293
                 energy =   -2.079355
                kinetic =    1.090115
    potential(screened) =   -3.169470
       potential(ionic) =   -5.727963

[...]

SPLIT: Basis orbitals for state 2p

   izeta = 1
                 lambda =    1.000000
                     rc =    6.740804
                 energy =   -1.441657
                kinetic =    3.222058
    potential(screened) =   -4.663715
       potential(ionic) =   -7.206130
*Note: V_local used for l= 2

** Using vlocal for PAOs with L= 2

SPLIT: Orbitals with angular momentum L= 2

SPLIT: Basis orbitals for state 3d

   izeta = 1
                 lambda =    1.000000
                     rc =    6.253707
                 energy =    0.017329
                kinetic =    1.197074
    potential(screened) =   -1.179745
       potential(ionic) =   -2.838380
atom: Total number of Sankey-type orbitals:  9

atm_pop: Valence configuration (for local Pseudopot. screening):
 2s( 2.00)
 2p( 2.00)
 3d( 0.00)
Vna: chval, zval:    4.00000   4.00000

Vna:  Cut-off radius for the neutral-atom potential:   6.740804
comcore: Pseudo-core radius Rcore=  1.682861

atom: _________________________________________________________________________

prinput: Basis input

PAO.BasisType split

%block ChemicalSpeciesLabel
    1    6 C                       # Species index, atomic number, species label
%endblock ChemicalSpeciesLabel

%block PAO.Basis                 # Define Basis set
# WARNING: This information might be incomplete!
C                     3   0.999            # Label, l-shells, ionic net charge
 n=2   0   1                         # n, l, Nzeta
   6.099
   1.000
 n=2   1   1                         # n, l, Nzeta
   6.741
   1.000
 n=3   2   1                         # n, l, Nzeta
   6.254
   1.000
%endblock PAO.Basis

prinput: ----------------------------------------------------------------------

Dumping basis to NetCDF file C.ion.nc
coor:   Atomic-coordinates input format  =     Cartesian coordinates
coor:                                          (in Angstroms)

siesta: WARNING: XV file not found

siesta: Atomic coordinates (Bohr) and species
siesta:      2.68394   0.00000  34.51400  1        1
siesta:     10.73577   0.00000  34.57777  1        2
siesta:     18.78760   0.00000  34.55410  1        3
siesta:     26.83943   0.00000  34.50719  1        4
siesta:      6.70986   2.32436  34.53623  1        5
siesta:     14.76169   2.32436  34.59127  1        6
siesta:     22.81352   2.32436  34.53100  1        7
siesta:     30.86535   2.32436  34.56206  1        8
siesta:     10.73577   4.64873  34.57384  1        9
siesta:     18.78760   4.64873  34.62101  1       10
siesta:     26.83943   4.64873  34.57414  1       11
siesta:      6.70986   6.97309  34.57790  1       12
siesta:     14.76169   6.97309  34.54466  1       13
siesta:     22.81352   6.97309  34.58010  1       14
siesta:     30.86535   6.97309  34.57132  1       15
siesta:     10.73577   9.29745  34.55063  1       16
siesta:     18.78760   9.29745  34.59444  1       17
siesta:     26.83943   9.29745  34.59787  1       18
siesta:     34.89126   9.29745  34.52951  1       19
siesta:     14.76169  11.62182  34.52043  1       20
siesta:     22.81352  11.62182  34.54706  1       21
siesta:     30.86535  11.62182  34.59695  1       22
siesta:     10.73577  13.94618  34.54986  1       23
siesta:     18.78760  13.94618  34.51792  1       24
siesta:     26.83943  13.94618  34.50589  1       25
siesta:     34.89126  13.94618  34.55981  1       26
siesta:     14.76169  16.27054  34.58399  1       27
siesta:     22.81352  16.27054  34.55286  1       28
siesta:     30.86535  16.27054  34.56017  1       29
siesta:     38.91718  16.27054  34.52978  1       30
siesta:     18.78760  18.59491  34.55714  1       31
siesta:     26.83943  18.59491  34.52612  1       32
siesta:     34.89126  18.59491  34.61289  1       33
siesta:     14.76169  20.91927  34.53911  1       34
siesta:     22.81352  20.91927  34.57984  1       35
siesta:     30.86535  20.91927  34.56250  1       36
siesta:     38.91718  20.91927  34.52947  1       37
siesta:      5.36789   0.00000  34.53999  1       38
siesta:     13.41972   0.00000  34.52885  1       39
siesta:     21.47155   0.00000  34.51547  1       40
siesta:     29.52338   0.00000  34.51661  1       41
siesta:      9.39380   2.32436  34.58365  1       42
siesta:     17.44563   2.32436  34.56268  1       43
siesta:     25.49746   2.32436  34.50162  1       44
siesta:      5.36789   4.64873  34.47013  1       45
siesta:     13.41972   4.64873  34.49420  1       46
siesta:     21.47155   4.64873  34.53928  1       47
siesta:     29.52338   4.64873  34.51918  1       48
siesta:      9.39380   6.97309  34.50913  1       49
siesta:     17.44563   6.97309  34.56164  1       50
siesta:     25.49746   6.97309  34.57112  1       51
siesta:     33.54929   6.97309  34.59846  1       52
siesta:     13.41972   9.29745  34.54242  1       53
[...]
redata: Using DFT-D3 dispersion                     =   T
redata: Using Saved Data (generic)                  =   F
redata: Use continuation files for DM               =   T
redata: Neglect nonoverlap interactions             =   F
redata: Method of Calculation                       = Diagonalization
redata: Electronic Temperature                      =   299.9863 K
redata: Fix the spin of the system                  =   F
redata: Max. number of TDED Iter                    =        1
redata: Number of TDED substeps                     =        3
redata: Dynamics option                             = Single-point calculation
mix.SCF: Pulay mixing                            = Pulay
mix.SCF:    Variant                              = stable
mix.SCF:    History steps                        = 12
mix.SCF:    Linear mixing weight                 =     0.100000
mix.SCF:    Mixing weight                        =     0.100000
mix.SCF:    SVD condition                        = 0.1000E-07
redata: Save all siesta data in one NC              =   F
redata: ***********************************************************************

%block SCF.Mixers
  Pulay
%endblock SCF.Mixers

%block SCF.Mixer.Pulay
  # Mixing method
  method pulay
  variant stable

  # Mixing options
  weight 0.1000
  weight.linear 0.1000
  history 12
%endblock SCF.Mixer.Pulay

DFT-D3: loading default parameters for functional PBE.
DM_history_depth set to one: no extrapolation allowed by default for geometry relaxation
Size of DM history Fstack: 1
Total number of electrons:   592.000000
Total ionic charge:   592.000000

* ProcessorY, Blocksize:    4  42

* Orbital distribution balance (max,min):    42    30

 Kpoints in:            1 . Kpoints trimmed:            1

siesta: k-grid: Number of k-points = 1
siesta: k-points from Monkhorst-Pack grid
siesta: k-cutoff (effective) =     7.482 Ang
siesta: k-point supercell and displacements
siesta: k-grid:     1     0     0      0.000
siesta: k-grid:     0     1     0      0.000
siesta: k-grid:     0     0     1      0.000

diag: Algorithm                                     = D&C
diag: Parallel over k                               =   F
diag: Use parallel 2D distribution                  =   T
diag: Parallel block-size                           = 42
diag: Parallel distribution                         =     4 x     8
diag: Used triangular part                          = Lower
diag: Absolute tolerance                            =  0.100E-15
diag: Orthogonalization factor                      =  0.100E-05

siesta: Constraint v=[  0.00000,  0.00000,  1.00000] (148): center-dir
  [ 1 -- 148 ]

ts: **************************************************************
ts: Save H and S matrices                           =    F
ts: Save DM and EDM matrices                        =    F
ts: Only save the overlap matrix S                  =    F
ts: **************************************************************

************************ Begin: TS CHECKS AND WARNINGS ************************
************************ End: TS CHECKS AND WARNINGS **************************

                        Single-point calculation

outcell: Unit cell vectors (Ang):
       14.912957   -1.230000    0.000000
        8.521690   12.300000    0.000000
        0.000000    0.000000   40.000000

outcell: Cell vector modules (Ang)   :   14.963596   14.963596   40.000000
outcell: Cell angles (23,13,12) (deg):     90.0000     90.0000     60.0000
outcell: Cell volume (Ang**3)        :   7756.4422
<dSpData1D:S at geom step 0
  <sparsity:sparsity for geom step 0
    nrows_g=1332 nrows=42 sparsity=.0226 nnzs=40109, refcount: 7>
  <dData1D:(new from dSpData1D) n=40109, refcount: 1>
refcount: 1>
new_DM -- step:     1
Initializing Density Matrix...

Attempting to read DM from file... Failed...
DM filled with atomic data:
<dSpData2D:DM initialized from atoms
  <sparsity:sparsity for geom step 0
    nrows_g=1332 nrows=42 sparsity=.0226 nnzs=40109, refcount: 8>
  <dData2D:DM n=40109 m=1, refcount: 1>
refcount: 1>
No. of atoms with KB's overlaping orbs in proc 0. Max # of overlaps:      73     231

InitMesh: MESH = 144 x 144 x 432 = 8957952
InitMesh: Mesh cutoff (required, used) =   300.000   322.366 Ry
New grid distribution [1]: sub = 2
New grid distribution [2]: sub = 2
New grid distribution [3]: sub = 2
Setting up quadratic distribution...

stepf: Fermi-Dirac step function

siesta: Program's energy decomposition (eV):
siesta: Ebs     =     -8651.378708
siesta: Eions   =     41759.932744
siesta: Ena     =      9221.624460
siesta: Ekin    =     16306.291380
siesta: Enl     =      -733.827417
siesta: Eso     =         0.000000
siesta: Edftu   =         0.000000
siesta: DEna    =      1252.555220
siesta: DUscf   =        80.144925
siesta: DUext   =         0.000000
siesta: Ex      =     -7801.378652
siesta: Ec      =      -752.370332
siesta: Exc     =     -8553.748984
siesta: EbV     =         0.000000
siesta: eta*DQ  =         0.000000
siesta: Emadel  =         0.000000
siesta: Emeta   =         0.000000
siesta: Emolmec =         0.000000
siesta: Ekinion =         0.000000
siesta: Eharris =    -24774.111005
siesta: Etot    =    -24186.893160
siesta: FreeEng =    -24186.893160

SCF Convergence by DM+H criterion
max |DM_out - DM_in|         :     0.0000892806
max |H_out - H_in|      (eV) :     0.0005560888
SCF cycle converged after 10 iterations

Using DM_out to compute the final energy and forces
No. of atoms with KB's overlaping orbs in proc 0. Max # of overlaps:      73     231
System symmetry is of type slab but no DFTD3.Periodic list was found. Attempting to guess symmetry for D3.
Could not guess the right amount of periodicity directions for D3.
Enabling periodicity on all directions.

siesta: E_KS(eV) =           -24213.7878

siesta: E_KS - E_eggbox =    -24213.7878

siesta: Atomic forces (eV/Ang):
   Tot    0.000307    0.000278   -0.000915
   Max    0.723734
   Res    0.168497    sqrt( Sum f_i^2 / 3N )
   Max    0.723734    constrained

Stress tensor Voigt[x,y,z,yz,xz,xy] (kbar):      -24.84      -24.82       -4.87       -0.00       -0.00       -0.00
(Free)E + p*V (eV/cell)   -24125.7934
Target enthalpy (eV/cell)   -24213.7878

siesta: Program's energy decomposition (eV):
siesta: Ebs     =     -7853.353034
siesta: Eions   =     41759.932744
siesta: Ena     =      9221.624460
siesta: Ekin    =     16818.265637
siesta: Enl     =      -852.505397
siesta: Eso     =         0.000000
siesta: Edftu   =         0.000000
siesta: DEna    =       969.639156
siesta: DUscf   =        49.155163
siesta: DUext   =         0.000000
siesta: Ex      =     -7894.129688
siesta: Ec      =      -751.175297
siesta: Exc     =     -8645.304986
siesta: EbV     =         0.000000
siesta: eta*DQ  =         0.000000
siesta: Emadel  =         0.000000
siesta: Emeta   =         0.000000
siesta: Emolmec =         0.000000
siesta: Ekinion =         0.000000
siesta: Eharris =    -24199.058720
siesta: Etot    =    -24213.787789
siesta: FreeEng =    -24213.787789

siesta: Final energy (eV):
siesta:  Band Struct. =   -7853.353034
siesta:       Kinetic =   16818.265637
siesta:       Hartree =  395210.723110
siesta:         Edftu =       0.000000
siesta:       Eso     =       0.000000
siesta:    Ext. field =       0.000000
siesta:         Exch. =   -7894.129688
siesta:         Corr. =    -751.175297
siesta:     Bulk bias =       0.000000
siesta:   Exch.-corr. =   -8645.304986
siesta:  Ion-electron = -805640.930687
siesta:       Ion-ion =  378058.188214
siesta:       Ekinion =       0.000000
siesta: D3 dispersion =     -14.729077
siesta:         Total =  -24213.787789
siesta:         Fermi =      -4.487574

siesta: Atomic forces (eV/Ang):
siesta:      1    0.003251   -0.000824    0.117971
siesta:      2    0.019636    0.003389   -0.115320
siesta:      3    0.014434   -0.002558   -0.091830
siesta:      4   -0.016054   -0.023121    0.270801
siesta:      5    0.004838    0.007658   -0.100875
siesta:      6   -0.002029    0.010497   -0.494511
siesta:      7   -0.001974    0.001006   -0.161380
siesta:      8    0.006652   -0.004020   -0.577177
siesta:      9    0.014382    0.009429   -0.449138
siesta:     10    0.008816    0.000639   -0.482417
siesta:     11   -0.014380   -0.009241   -0.384153
siesta:     12   -0.008133   -0.032611   -0.401558
siesta:     13   -0.002733   -0.004559   -0.205281
siesta:     14   -0.014193    0.004535   -0.062263
siesta:     15   -0.018428   -0.011209   -0.052480
siesta:     16   -0.006904   -0.011481   -0.015782
siesta:     17   -0.024048    0.030775   -0.267489
siesta:     18   -0.026678    0.032820   -0.420286
siesta:     19   -0.006141   -0.021226    0.403080
siesta:     20   -0.004652   -0.003808   -0.022150
siesta:     21   -0.002639    0.008934    0.032819
siesta:     22   -0.002807    0.001251   -0.383791
siesta:     23   -0.007231   -0.014612    0.242789
siesta:     24    0.001383    0.010323    0.019158
siesta:     25   -0.003294    0.018881    0.185252
siesta:     26    0.001788   -0.012858    0.003684
siesta:     27   -0.011714    0.020973   -0.666685
siesta:     28    0.002810    0.016400    0.083271
siesta:     29    0.006710   -0.004764   -0.101160
siesta:     30    0.007357   -0.017326   -0.014218
siesta:     31    0.006384    0.005962   -0.234999
siesta:     32    0.007884    0.009162    0.355799
siesta:     33    0.016600   -0.018704   -0.421194
siesta:     34   -0.012335   -0.006472   -0.008020
siesta:     35    0.004317    0.010152   -0.172705
siesta:     36    0.013669    0.002122   -0.087294
siesta:     37    0.017938   -0.007278    0.175933
siesta:     38   -0.002736    0.005883    0.013899
siesta:     39   -0.016782    0.002403    0.341239
siesta:     40   -0.015548   -0.013147    0.106271
siesta:     41   -0.004238    0.008082    0.017761
siesta:     42   -0.017370    0.012090   -0.065313
siesta:     43   -0.008753   -0.003272    0.228305
siesta:     44   -0.001651    0.006084    0.192532
siesta:     45   -0.003611    0.033050    0.629836
siesta:     46   -0.006845   -0.010734    0.581214
siesta:     47   -0.017115   -0.007932    0.313433
siesta:     48   -0.003377    0.012089    0.397350
siesta:     49   -0.006119    0.014668    0.410418
siesta:     50    0.006346   -0.010079    0.269469
siesta:     51    0.003172   -0.008309    0.135010
siesta:     52    0.005456    0.022982   -0.247489
siesta:     53    0.008622    0.006772   -0.042879
siesta:     54    0.014302   -0.006743   -0.145675
siesta:     55    0.003113    0.001793    0.169085
siesta:     56    0.006450    0.014234   -0.418735
siesta:     57    0.028659   -0.029343    0.301731
siesta:     58    0.008340   -0.038169    0.384556
siesta:     59   -0.001195    0.007395    0.141794
siesta:     60    0.015615    0.004940    0.097427
[...]
siesta:    134    0.006803   -0.006557    0.033197
siesta:    135    0.018414    0.020572   -0.073877
siesta:    136   -0.001394    0.009542   -0.318439
siesta:    137    0.001223   -0.027257   -0.453131
siesta:    138    0.026058   -0.002009    0.573974
siesta:    139   -0.005378   -0.015577    0.034512
siesta:    140   -0.006349   -0.002902   -0.139432
siesta:    141    0.014821    0.015946   -0.347758
siesta:    142   -0.006255   -0.003171    0.064943
siesta:    143   -0.011849   -0.013218    0.113794
siesta:    144   -0.013738    0.009373   -0.020251
siesta:    145    0.003438    0.013536    0.036030
siesta:    146   -0.002616   -0.002943    0.205279
siesta:    147    0.002688    0.020533    0.246641
siesta:    148   -0.002567    0.004222   -0.180773
siesta: ----------------------------------------
siesta:    Tot    0.000307    0.000278   -0.000915

siesta: Constrained forces (eV/Ang):
siesta:      1    0.003249   -0.000826    0.117971
siesta:      2    0.019634    0.003387   -0.115320
siesta:      3    0.014432   -0.002560   -0.091830
siesta:      4   -0.016056   -0.023123    0.270801
siesta:      5    0.004836    0.007656   -0.100875
siesta:      6   -0.002032    0.010495   -0.494511
siesta:      7   -0.001976    0.001004   -0.161380
siesta:      8    0.006650   -0.004022   -0.577177
siesta:      9    0.014380    0.009427   -0.449138
siesta:     10    0.008814    0.000637   -0.482417
siesta:     11   -0.014382   -0.009243   -0.384153
siesta:     12   -0.008135   -0.032613   -0.401558
siesta:     13   -0.002735   -0.004560   -0.205281
siesta:     14   -0.014195    0.004533   -0.062263
siesta:     15   -0.018430   -0.011210   -0.052480
siesta:     16   -0.006906   -0.011483   -0.015782
siesta:     17   -0.024050    0.030773   -0.267489
siesta:     18   -0.026680    0.032818   -0.420286
siesta:     19   -0.006143   -0.021228    0.403080
siesta:     20   -0.004654   -0.003810   -0.022150
siesta:     21   -0.002641    0.008932    0.032819
siesta:     22   -0.002809    0.001249   -0.383791
siesta:     23   -0.007234   -0.014614    0.242789
siesta:     24    0.001381    0.010322    0.019158
siesta:     25   -0.003296    0.018879    0.185252
siesta:     26    0.001786   -0.012860    0.003684
siesta:     27   -0.011716    0.020972   -0.666685
siesta:     28    0.002808    0.016398    0.083271
siesta:     29    0.006708   -0.004766   -0.101160
siesta:     30    0.007355   -0.017328   -0.014218
siesta:     31    0.006382    0.005960   -0.234999
siesta:     32    0.007881    0.009160    0.355799
siesta:     33    0.016598   -0.018705   -0.421194
siesta:     34   -0.012337   -0.006474   -0.008020
siesta:     35    0.004315    0.010150   -0.172705
siesta:     36    0.013667    0.002120   -0.087294
siesta:     37    0.017936   -0.007280    0.175933
siesta:     38   -0.002738    0.005882    0.013899
siesta:     39   -0.016784    0.002401    0.341239
siesta:     40   -0.015550   -0.013149    0.106271
siesta:     41   -0.004240    0.008080    0.017761
siesta:     42   -0.017372    0.012088   -0.065313
siesta:     43   -0.008755   -0.003274    0.228305
siesta:     44   -0.001653    0.006082    0.192532
siesta:     45   -0.003613    0.033048    0.629836
siesta:     46   -0.006847   -0.010735    0.581214
siesta:     47   -0.017117   -0.007933    0.313433
siesta:     48   -0.003380    0.012088    0.397350
siesta:     49   -0.006121    0.014666    0.410418
siesta:     50    0.006344   -0.010081    0.269469
siesta:     51    0.003170   -0.008311    0.135010
siesta:     52    0.005454    0.022980   -0.247489
siesta:     53    0.008620    0.006770   -0.042879
siesta:     54    0.014300   -0.006745   -0.145675
siesta:     55    0.003111    0.001792    0.169085
siesta:     56    0.006448    0.014232   -0.418735
siesta:     57    0.028657   -0.029345    0.301731
siesta:     58    0.008338   -0.038170    0.384556
siesta:     59   -0.001197    0.007393    0.141794
siesta:     60    0.015613    0.004938    0.097427
[...]
siesta:    134    0.006801   -0.006559    0.033197
siesta:    135    0.018412    0.020570   -0.073877
siesta:    136   -0.001396    0.009540   -0.318439
siesta:    137    0.001221   -0.027259   -0.453131
siesta:    138    0.026056   -0.002011    0.573974
siesta:    139   -0.005380   -0.015579    0.034512
siesta:    140   -0.006351   -0.002904   -0.139432
siesta:    141    0.014818    0.015944   -0.347758
siesta:    142   -0.006257   -0.003173    0.064943
siesta:    143   -0.011851   -0.013220    0.113794
siesta:    144   -0.013740    0.009371   -0.020251
siesta:    145    0.003436    0.013534    0.036030
siesta:    146   -0.002618   -0.002944    0.205279
siesta:    147    0.002686    0.020531    0.246641
siesta:    148   -0.002569    0.004220   -0.180773
siesta: ----------------------------------------
siesta:  Tot   -0.000000   -0.000000   -0.000915

siesta: Stress tensor (static) (eV/Ang**3):
siesta:    -0.015503   -0.000002   -0.000000
siesta:    -0.000002   -0.015489   -0.000001
siesta:    -0.000000   -0.000001   -0.003042

siesta: Cell volume =       7756.442214 Ang**3

siesta: Pressure (static):
siesta:                Solid            Molecule  Units
siesta:           0.00012356          0.00012215  Ry/Bohr**3
siesta:           0.01134469          0.01121571  eV/Ang**3
siesta:          18.17618961         17.96955611  kBar
(Free)E+ p_basis*V_orbitals  =      -24124.596186
(Free)Eharris+ p_basis*V_orbitals  =      -24109.867116

siesta: Electric dipole (a.u.)  =    0.000000    0.000000    0.001819
siesta: Electric dipole (Debye) =    0.000000    0.000000    0.004623

cite: Please see "Graphene.bib" for an exhaustive BiBTeX file.
cite: Please clearly indicate Siesta version in published work: 5.0.0-alpha-112-g6e4f53aee-dirty
cite: This calculation has made use of the following articles
cite: which are encouraged to be cited in a published work.
        Primary SIESTA paper
          DOI: www.doi.org/10.1088/0953-8984/14/11/302

>> End of run:  30-NOV-2024  17:08:51
Job completed