Runtime information:
* Directory : /n/holylabs/LABS/kaxiras_lab/axzhu/projects/AM207-final-project/N_9/PSO_z
>> Start of run:   1-DEC-2024  14:05:02

reinit: Reading from standard input
reinit: Dumping input in INPUT_TMP.22519
************************** Dump of input data file ****************************
#	Basic Information	#
SystemName      Graphene
SystemLabel     Graphene
#	Structural Information		#
%include structure.fdf
#       DFT Parameters          #
SolutionMethod diagon           # Method of solving system. Can change to OrderN, transiesta, etc.
#Diag.Algorithm MRRR
#NumberOfEigenStates -20 # this will include first 10 conduction bands
XC.Functional   GGA
XC.Authors      PBE
DFTD3 true
Spin non-polarized
Mesh.Cutoff 300 Ry              # Cut off plane waves with kinetic energy higher than this.
MaxSCFIterations 300            # Max number of iterations in the SCF loop.
DM.UseSaveDM true
MinSCFIterations       3
SCF.DM.Tolerance       0.0001
SCF.Mixer.Weight       0.10
SCF.Mixer.History      12
SCF.Mix.First          true
#             Basis             #
#PAO.BasisSize   DZP
PAO.Basis < basis.fdf
#	k-points, Bands, DOS		#
%block kgrid_Monkhorst_Pack
   1  0  0  0.0
   0  1  0  0.0
   0  0  1  0.0
%endblock kgrid_Monkhorst_Pack
#BandLinesScale ReciprocalLatticeVectors
#%block BandLines
#1   0.6666666667  0.3333333333  0.0000000000  K
#10  0.0000000000  0.0000000000  0.0000000000  Gamma
#10  0.5000000000  0.0000000000  0.0000000000  M
#10  0.6666666667  0.3333333333  0.0000000000  K
#%endblock BandLines
# Local density of states (LDOS)
# %block LocalDensityOfStates
# EF 8.40 8.50 eV
# %endblock LocalDensityOfStates
#             Wavefunctions             #
#WaveFuncKPointsScale ReciprocalLatticeVectors
#%block WaveFuncKPoints
#0.666 0.333 0.000 from 4375 to 4378 # K wavefuncs 4375 to 4378
#0.000 0.000 0.000 from 4375 to 4378 # Gamma wavefuncs 4375 to 4378
#0.500 0.000 0.000 from 4375 to 4378 # M wavefuncs 4375 to 4378
#%endblock WaveFuncKPoints
#WriteDenchar T
#       Geometry Optimisation           #
MD.UseSaveXV true
MD.TypeOfRun           CG                  # Conjugate Gradient
MD.NumCGsteps          200                 # Max number of steps
MD.MaxForceTol         0.01    eV/Ang      # 10 meV/Ang
MD.VariableCell        false               # Don't relax cell
MD.MaxCGDispl          0.5 Bohr            # Maximum displacement of any atom
# Fix COM in Z direction only
%block Geometry.Constraints
 center all 0.0 0.0 1.0
%endblock Geometry.Constraints
************************** End of input data file *****************************

reinit: -----------------------------------------------------------------------
reinit: System Name: Graphene
reinit: -----------------------------------------------------------------------
reinit: System Label: Graphene
reinit: -----------------------------------------------------------------------

initatom: Reading input for the pseudopotentials and atomic orbitals ----------
Species number:   1 Atomic number:    6 Label: C

---- Processing specs for species: C
Ground state valence configuration:   2s02  2p02
Reading pseudopotential information in PSML from:
  C.psml
PSML file version: 1.1
GGA--PBE XC_GGA_X_PBE--XC_GGA_C_PBE pb
 Using ATOM defaults for log grid...
PSML uuid: 297821e0-be41-11e7-6802-e1ff7dfff095

---- Pseudopotential check for C

Pseudized shells:
2s( 2.00) rc: 1.20
2p( 2.00) rc: 1.26
Valence configuration for ps generation: 2s:2p: Total charge:   4.000000
For C, standard SIESTA heuristics set lmxkb to 3
 (one more than the basis l, including polarization orbitals).
Use PS.lmax or PS.KBprojectors blocks to override.
C pseudopotential only contains V_ls up to l=1 -- lmxkb reset.

<basis_specs>
C                    Z=   6    Mass=  12.011        Charge= 0.99941
Lmxo=2 Lmxkb= 1    BasisType=split      Semic=F
L=0  Nsemic=0  Cnfigmx=2
          i=1  nzeta=1  polorb=0  (2s)
            splnorm:   0.15000
               vcte:    132.57
               rinn:    4.5256
               qcoe:    0.0000
               qyuk:    0.0000
               qwid:   0.10000E-01
                rcs:    6.0009
            lambdas:    1.0000
L=1  Nsemic=0  Cnfigmx=2
          i=1  nzeta=1  polorb=0  (2p)
            splnorm:   0.15000
               vcte:    6.0639
               rinn:    6.0646
               qcoe:    0.0000
               qyuk:    0.0000
               qwid:   0.10000E-01
                rcs:    6.7108
            lambdas:    1.0000
L=2  Nsemic=0  Cnfigmx=3
          i=1  nzeta=1  polorb=0  (3d)
            splnorm:   0.15000
               vcte:    14.478
               rinn:    4.3208
               qcoe:    0.0000
               qyuk:    0.0000
               qwid:   0.10000E-01
                rcs:    6.2254
            lambdas:    1.0000
L=0  Nkbl=1  erefs: 0.17977+309
L=1  Nkbl=1  erefs: 0.17977+309
</basis_specs>

atom: Called for C                     (Z =   6)
NOTE: C pseudopotential has channels up to l= 1
NOTE: PAOs with higher l will be generated with V_local

read_vps: Pseudopotential generation method:
read_vps: ONCVPSP-3.Hamann's oncvpsp
Valence charge in pseudo generation:    4.00000

read_vps: Pseudopotential includes a core correction:
read_vps: Pseudo-core for xc-correction

xc_check: Exchange-correlation functional:
xc_check: GGA Perdew, Burke & Ernzerhof 1996
Got Vlocal (oncv-fit) from psml data
Choosing vlocal chloc cutoff:  4.139772
qtot up to nchloc:    3.99998844
atom: Maximum radius for chlocal:    4.13977
atom: Maximum radius for r*vlocal+2*Zval:    4.13977
Reading KB projs from C psml data
Using scalar-relativistic projectors in PSML file

PSML: Kleinman-Bylander projectors:
   l= 0   rc=  1.231096   Ekb= 12.963096
   l= 0   rc=  1.231096   Ekb=  0.771007
   l= 1   rc=  1.294237   Ekb= -8.399923
   l= 1   rc=  1.294237   Ekb= -1.755033

PSML: Total number of  Kleinman-Bylander projectors:   8
atom: -------------------------------------------------------------------------

atom: SANKEY-TYPE ORBITALS:

atom: basis set generated (by rescaling the valence charge)
atom: for a cation of charge   0.9994

SPLIT: Orbitals with angular momentum L= 0

SPLIT: Basis orbitals for state 2s

   izeta = 1
                 lambda =    1.000000
                     rc =    6.099293
                 energy =   -2.079355
                kinetic =    1.090115
    potential(screened) =   -3.169470
       potential(ionic) =   -5.727963

[...]

SPLIT: Basis orbitals for state 2p

   izeta = 1
                 lambda =    1.000000
                     rc =    6.740804
                 energy =   -1.441657
                kinetic =    3.222058
    potential(screened) =   -4.663715
       potential(ionic) =   -7.206130
*Note: V_local used for l= 2

** Using vlocal for PAOs with L= 2

SPLIT: Orbitals with angular momentum L= 2

SPLIT: Basis orbitals for state 3d

   izeta = 1
                 lambda =    1.000000
                     rc =    6.253707
                 energy =    0.017329
                kinetic =    1.197074
    potential(screened) =   -1.179745
       potential(ionic) =   -2.838380
atom: Total number of Sankey-type orbitals:  9

atm_pop: Valence configuration (for local Pseudopot. screening):
 2s( 2.00)
 2p( 2.00)
 3d( 0.00)
Vna: chval, zval:    4.00000   4.00000

Vna:  Cut-off radius for the neutral-atom potential:   6.740804
comcore: Pseudo-core radius Rcore=  1.682861

atom: _________________________________________________________________________

prinput: Basis input

PAO.BasisType split

%block ChemicalSpeciesLabel
    1    6 C                       # Species index, atomic number, species label
%endblock ChemicalSpeciesLabel

%block PAO.Basis                 # Define Basis set
# WARNING: This information might be incomplete!
C                     3   0.999            # Label, l-shells, ionic net charge
 n=2   0   1                         # n, l, Nzeta
   6.099
   1.000
 n=2   1   1                         # n, l, Nzeta
   6.741
   1.000
 n=3   2   1                         # n, l, Nzeta
   6.254
   1.000
%endblock PAO.Basis

prinput: ----------------------------------------------------------------------

Dumping basis to NetCDF file C.ion.nc
coor:   Atomic-coordinates input format  =     Cartesian coordinates
coor:                                          (in Angstroms)

siesta: WARNING: XV file not found

siesta: Atomic coordinates (Bohr) and species
siesta:      2.68394   0.00000  34.55194  1        1
siesta:     10.73577   0.00000  34.52304  1        2
siesta:     18.78760   0.00000  34.56680  1        3
siesta:     26.83943   0.00000  34.56728  1        4
siesta:     34.89126   0.00000  34.47945  1        5
siesta:     42.94309   0.00000  34.55763  1        6
siesta:     50.99492   0.00000  34.55032  1        7
siesta:     59.04675   0.00000  34.54385  1        8
siesta:     67.09858   0.00000  34.46518  1        9
siesta:      6.70986   2.32436  34.44319  1       10
siesta:     14.76169   2.32436  34.57652  1       11
siesta:     22.81352   2.32436  34.60343  1       12
siesta:     30.86535   2.32436  34.52952  1       13
siesta:     38.91718   2.32436  34.58835  1       14
siesta:     46.96901   2.32436  34.58412  1       15
siesta:     55.02084   2.32436  34.55389  1       16
siesta:     63.07267   2.32436  34.59646  1       17
siesta:     71.12450   2.32436  34.61366  1       18
siesta:     10.73577   4.64873  34.56240  1       19
siesta:     18.78760   4.64873  34.58687  1       20
siesta:     26.83943   4.64873  34.57403  1       21
siesta:     34.89126   4.64873  34.57248  1       22
siesta:     42.94309   4.64873  34.52060  1       23
siesta:     50.99492   4.64873  34.54265  1       24
siesta:     59.04675   4.64873  34.48377  1       25
siesta:     67.09858   4.64873  34.57856  1       26
siesta:      6.70986   6.97309  34.50789  1       27
siesta:     14.76169   6.97309  34.56861  1       28
siesta:     22.81352   6.97309  34.56517  1       29
siesta:     30.86535   6.97309  34.53708  1       30
siesta:     38.91718   6.97309  34.55959  1       31
siesta:     46.96901   6.97309  34.58302  1       32
siesta:     55.02084   6.97309  34.50320  1       33
siesta:     63.07267   6.97309  34.59066  1       34
siesta:     71.12450   6.97309  34.56468  1       35
siesta:     10.73577   9.29745  34.51415  1       36
siesta:     18.78760   9.29745  34.54511  1       37
siesta:     26.83943   9.29745  34.58736  1       38
siesta:     34.89126   9.29745  34.58170  1       39
siesta:     42.94309   9.29745  34.59997  1       40
siesta:     50.99492   9.29745  34.60710  1       41
siesta:     59.04675   9.29745  34.61319  1       42
siesta:     67.09858   9.29745  34.52161  1       43
siesta:     75.15041   9.29745  34.55416  1       44
siesta:     14.76169  11.62182  34.56612  1       45
siesta:     22.81352  11.62182  34.61184  1       46
siesta:     30.86535  11.62182  34.51001  1       47
siesta:     38.91718  11.62182  34.60996  1       48
siesta:     46.96901  11.62182  34.45557  1       49
siesta:     55.02084  11.62182  34.47578  1       50
siesta:     63.07267  11.62182  34.53349  1       51
siesta:     71.12450  11.62182  34.53948  1       52
siesta:     10.73577  13.94618  34.56451  1       53
[...]

  # Mixing options
  weight 0.1000
  weight.linear 0.1000
  history 12
%endblock SCF.Mixer.Pulay

DFT-D3: loading default parameters for functional PBE.
DM_history_depth set to one: no extrapolation allowed by default for geometry relaxation
Size of DM history Fstack: 1
Total number of electrons:  3472.000000
Total ionic charge:  3472.000000

* ProcessorY, Blocksize:    8  64

* Orbital distribution balance (max,min):   128    64

 Kpoints in:            1 . Kpoints trimmed:            1

siesta: k-grid: Number of k-points = 1
siesta: k-points from Monkhorst-Pack grid
siesta: k-cutoff (effective) =    18.119 Ang
siesta: k-point supercell and displacements
siesta: k-grid:     1     0     0      0.000
siesta: k-grid:     0     1     0      0.000
siesta: k-grid:     0     0     1      0.000

diag: Algorithm                                     = D&C
diag: Parallel over k                               =   F
diag: Use parallel 2D distribution                  =   T
diag: Parallel block-size                           = 64
diag: Parallel distribution                         =     8 x     8
diag: Used triangular part                          = Lower
diag: Absolute tolerance                            =  0.100E-15
diag: Orthogonalization factor                      =  0.100E-05

siesta: Constraint v=[  0.00000,  0.00000,  1.00000] (868): center-dir
  [ 1 -- 868 ]

ts: **************************************************************
ts: Save H and S matrices                           =    F
ts: Save DM and EDM matrices                        =    F
ts: Only save the overlap matrix S                  =    F
ts: **************************************************************

************************ Begin: TS CHECKS AND WARNINGS ************************
************************ End: TS CHECKS AND WARNINGS **************************

                        Begin CG opt. move =      0

outcell: Unit cell vectors (Ang):
       36.217182   -1.230000    0.000000
       19.173802   30.750000    0.000000
        0.000000    0.000000   40.000000

outcell: Cell vector modules (Ang)   :   36.238063   36.238063   40.000000
outcell: Cell angles (23,13,12) (deg):     90.0000     90.0000     60.0000
outcell: Cell volume (Ang**3)        :  45490.4854
<dSpData1D:S at geom step 0
  <sparsity:sparsity for geom step 0
    nrows_g=7812 nrows=128 sparsity=.0020 nnzs=122540, refcount: 7>
  <dData1D:(new from dSpData1D) n=122540, refcount: 1>
refcount: 1>
new_DM -- step:     1
Initializing Density Matrix...

Attempting to read DM from file... Failed...
DM filled with atomic data:
<dSpData2D:DM initialized from atoms
  <sparsity:sparsity for geom step 0
    nrows_g=7812 nrows=128 sparsity=.0020 nnzs=122540, refcount: 8>
  <dData2D:DM n=122540 m=1, refcount: 1>
refcount: 1>
No. of atoms with KB's overlaping orbs in proc 0. Max # of overlaps:     241     232

InitMesh: MESH = 360 x 360 x 432 = 55987200
InitMesh: Mesh cutoff (required, used) =   300.000   322.366 Ry
New grid distribution [1]: sub = 2
New grid distribution [2]: sub = 2
New grid distribution [3]: sub = 2
Setting up quadratic distribution...

stepf: Fermi-Dirac step function

siesta: Program's energy decomposition (eV):
siesta: Ebs     =    -50702.950861
siesta: Eions   =    244916.362311
siesta: Ena     =     54084.299856
siesta: Ekin    =     95632.618274
siesta: Enl     =     -4300.829024
siesta: Eso     =         0.000000
siesta: Edftu   =         0.000000
siesta: DEna    =      7352.524882
siesta: DUscf   =       471.057088
siesta: DUext   =         0.000000
siesta: Ex      =    -45751.510614
siesta: Ec      =     -4412.260409
siesta: Exc     =    -50163.771024
siesta: EbV     =         0.000000
siesta: eta*DQ  =         0.000000
siesta: Emadel  =         0.000000
siesta: Emeta   =         0.000000
siesta: Emolmec =         0.000000
siesta: Ekinion =         0.000000
siesta: Eharris =   -145272.110333
siesta: Etot    =   -141840.462258
siesta: FreeEng =   -141840.462259

SCF Convergence by DM+H criterion
max |DM_out - DM_in|         :     0.0000330729
max |H_out - H_in|      (eV) :     0.0003217636
SCF cycle converged after 12 iterations

Using DM_out to compute the final energy and forces
No. of atoms with KB's overlaping orbs in proc 0. Max # of overlaps:     241     232
System symmetry is of type slab but no DFTD3.Periodic list was found. Attempting to guess symmetry for D3.
Could not guess the right amount of periodicity directions for D3.
Enabling periodicity on all directions.

siesta: E_KS(eV) =          -141998.4795

siesta: E_KS - E_eggbox =   -141998.4795

siesta: Atomic forces (eV/Ang):
   Tot    0.000105   -0.000571   -0.003289
   Max    1.215336
   Res    0.194120    sqrt( Sum f_i^2 / 3N )
   Max    1.215336    constrained

Stress tensor Voigt[x,y,z,yz,xz,xy] (kbar):      -25.78      -25.79       -4.56        0.00       -0.00        0.01
(Free)E + p*V (eV/cell)  -141467.2619
Target enthalpy (eV/cell)  -141998.4795

[...]

outcell: Cell vector modules (Ang)   :   36.238063   36.238063   40.000000
outcell: Cell angles (23,13,12) (deg):     90.0000     90.0000     60.0000
outcell: Cell volume (Ang**3)        :  45490.4854
<dSpData1D:S at geom step 1
  <sparsity:sparsity for geom step 1
    nrows_g=7812 nrows=128 sparsity=.0020 nnzs=122490, refcount: 7>
  <dData1D:(new from dSpData1D) n=122490, refcount: 1>
refcount: 1>
new_DM -- step:     2
Re-using DM from previous geometries...
Number of DMs in history: 1
 DM extrapolation coefficients:
1   1.00000
New DM after history re-use:
<dSpData2D:SpM extrapolated using coords
  <sparsity:sparsity for geom step 1
    nrows_g=7812 nrows=128 sparsity=.0020 nnzs=122490, refcount: 9>
  <dData2D:(temp array for extrapolation) n=122490 m=1, refcount: 1>
refcount: 1>
No. of atoms with KB's overlaping orbs in proc 0. Max # of overlaps:     240     231

[...]

        iscf     Eharris(eV)        E_KS(eV)     FreeEng(eV)     dDmax    Ef(eV) dHmax(eV)
   scf:    1  -142000.767393  -142000.241049  -142000.241049  0.019272 -3.955267  0.277317
   scf:    2  -141999.174265  -141999.911093  -141999.911093  0.010599 -3.954007  1.494644
   scf:    3  -142000.295981  -142000.254254  -142000.254254  0.008865 -3.954939  0.029017
   scf:    4  -142000.256710  -142000.255588  -142000.255588  0.000493 -3.954732  0.012728
   scf:    5  -142000.256954  -142000.256310  -142000.256311  0.000265 -3.954529  0.007394
   scf:    6  -142000.256918  -142000.256641  -142000.256641  0.000268 -3.954343  0.002187
   scf:    7  -142000.256694  -142000.256670  -142000.256671  0.000079 -3.954295  0.000781

[...]

cgvc: Finished line minimization    1.  Mean atomic displacement =    0.0260

[...]

Using DM_out to compute the final energy and forces
No. of atoms with KB's overlaping orbs in proc 0. Max # of overlaps:     235     229
System symmetry is of type slab but no DFTD3.Periodic list was found. Attempting to guess symmetry for D3.
Periodicity direction guess succeeded.

[...]

cgvc: Finished line minimization   34.  Mean atomic displacement =    0.0008

[...]

                        Begin CG opt. move =     84

outcell: Unit cell vectors (Ang):
       36.217182   -1.230000    0.000000
       19.173802   30.750000    0.000000
        0.000000    0.000000   40.000000

outcell: Cell vector modules (Ang)   :   36.238063   36.238063   40.000000
outcell: Cell angles (23,13,12) (deg):     90.0000     90.0000     60.0000
outcell: Cell volume (Ang**3)        :  45490.4854
<dSpData1D:S at geom step 84
  <sparsity:sparsity for geom step 84
    nrows_g=7812 nrows=128 sparsity=.0020 nnzs=121193, refcount: 7>
  <dData1D:(new from dSpData1D) n=121193, refcount: 1>
refcount: 1>
new_DM -- step:    85
Re-using DM from previous geometries...
Number of DMs in history: 1
 DM extrapolation coefficients:
1   1.00000
New DM after history re-use:
<dSpData2D:SpM extrapolated using coords
  <sparsity:sparsity for geom step 84
    nrows_g=7812 nrows=128 sparsity=.0020 nnzs=121193, refcount: 9>
  <dData2D:(temp array for extrapolation) n=121193 m=1, refcount: 1>
refcount: 1>
No. of atoms with KB's overlaping orbs in proc 0. Max # of overlaps:     234     229

InitMesh: MESH = 360 x 360 x 432 = 55987200
InitMesh: Mesh cutoff (required, used) =   300.000   322.366 Ry
New grid distribution [1]: sub = 2
New grid distribution [2]: sub = 2
New grid distribution [3]: sub = 2
Setting up quadratic distribution...

        iscf     Eharris(eV)        E_KS(eV)     FreeEng(eV)     dDmax    Ef(eV) dHmax(eV)
   scf:    1  -142001.041971  -142001.045598  -142001.045598  0.000613 -3.956580  0.007355
   scf:    2  -142001.044504  -142001.045290  -142001.045290  0.000467 -3.956473  0.030232
   scf:    3  -142001.045666  -142001.045641  -142001.045641  0.000379 -3.956582  0.001543
   scf:    4  -142001.045652  -142001.045648  -142001.045649  0.000046 -3.956587  0.000277

SCF Convergence by DM+H criterion
max |DM_out - DM_in|         :     0.0000462083
max |H_out - H_in|      (eV) :     0.0002773647
SCF cycle converged after 4 iterations

Using DM_out to compute the final energy and forces
No. of atoms with KB's overlaping orbs in proc 0. Max # of overlaps:     234     229
System symmetry is of type slab but no DFTD3.Periodic list was found. Attempting to guess symmetry for D3.
Could not guess the right amount of periodicity directions for D3.
Enabling periodicity on all directions.

siesta: E_KS(eV) =          -142001.0480

siesta: Atomic forces (eV/Ang):
   Tot   -0.001432    0.001228   -0.002892
   Max    0.008352
   Res    0.002325    sqrt( Sum f_i^2 / 3N )
   Max    0.008350    constrained

Stress tensor Voigt[x,y,z,yz,xz,xy] (kbar):      -26.04      -26.05       -4.15        0.00       -0.00        0.00
(Free)E + p*V (eV/cell)  -141468.8175
Target enthalpy (eV/cell)  -142001.0480

outcoor: Relaxed atomic coordinates (Ang):
    1.42035801    0.00161920   18.16486146   1       1  C
    5.68136788    0.00575635   18.18643342   1       2  C
    9.94217128    0.00721525   18.22677024   1       3  C
   14.20279181    0.00485745   18.25463360   1       4  C
   18.46330565   -0.00015612   18.27131025   1       5  C
   22.72369221   -0.00498850   18.26127385   1       6  C
   26.98403657   -0.00683878   18.23015565   1       7  C
   31.24465765   -0.00507574   18.19283670   1       8  C
   35.50560043   -0.00072525   18.17020922   1       9  C
    3.54960933    1.23396576   18.17143818   1      10  C
    7.81073663    1.23694473   18.20649930   1      11  C
   12.07172748    1.23647029   18.24423846   1      12  C
   16.33257506    1.23258108   18.26547497   1      13  C
   20.59296195    1.22732652   18.26949030   1      14  C
   24.85308264    1.22380371   18.24827740   1      15  C
   29.11318096    1.22376667   18.21055744   1      16  C
   33.37367415    1.22706061   18.18254604   1      17  C
   37.63477084    1.23181537   18.16905423   1      18  C
    5.67902047    2.46567857   18.18904204   1      19  C
    9.94038747    2.46701596   18.22966247   1      20  C
   14.20163569    2.46482317   18.25740262   1      21  C
   18.46238579    2.45997216   18.27352018   1      22  C
   22.72250919    2.45533928   18.26171765   1      23  C
   26.98226211    2.45352334   18.23002737   1      24  C
   31.24230417    2.45532627   18.19683899   1      25  C
   35.50297118    2.45945542   18.17855769   1      26  C
    3.54705927    3.69391904   18.17929624   1      27  C
    7.80875145    3.69661934   18.21325886   1      28  C
   12.07048142    3.69616307   18.24933329   1      29  C
   16.33177148    3.69252709   18.27099279   1      30  C
   20.59215050    3.68759239   18.27298283   1      31  C
   24.85183060    3.68430706   18.25024067   1      32  C
   29.11129723    3.68438742   18.21385652   1      33  C
   33.37140667    3.68737261   18.19128324   1      34  C
   37.63246067    3.69173931   18.18266967   1      35  C
    5.67702835    4.92538520   18.20058490   1      36  C
    9.93905421    4.92645568   18.23880040   1      37  C
   14.20095672    4.92443507   18.26571889   1      38  C
   18.46197152    4.92003387   18.27940468   1      39  C
   22.72184024    4.91599140   18.26604456   1      40  C
   26.98113835    4.91433764   18.23565170   1      41  C
   31.24052196    4.91590199   18.20704935   1      42  C
   35.50094155    4.91961161   18.19270785   1      43  C
   39.76241342    4.92349497   18.19604525   1      44  C
    7.80744732    6.15584935   18.22601857   1      45  C
   12.06985670    6.15541565   18.25941356   1      46  C
   16.33160300    6.15220311   18.27899747   1      47  C
   20.59212991    6.14798792   18.27819152   1      48  C
   24.85144576    6.14517468   18.25653798   1      49  C
   29.11034514    6.14519509   18.22554021   1      50  C
   33.36993664    6.14782975   18.20677818   1      51  C
   37.63080888    6.15150879   18.19995119   1      52  C
    5.67577283    7.38457418   18.21704471   1      53  C
    9.93851348    7.38543652   18.25100875   1      54  C
   14.20103954    7.38367168   18.27396154   1      55  C
   18.46238052    7.38004820   18.28396263   1      56  C
   22.72206953    7.37661427   18.27233502   1      57  C
   26.98088003    7.37537431   18.24691760   1      58  C
   31.23978902    7.37666037   18.22388426   1      59  C
   35.49982243    7.37971516   18.21104394   1      60  C
[...]
   28.29971674   28.88955681   21.77333688   1     854  C
   32.55105570   28.60237647   21.73733069   1     855  C
   36.80224087   28.31805557   21.72462863   1     856  C
   41.05309505   28.03395637   21.74509915   1     857  C
   45.30353505   27.74725053   21.77243925   1     858  C
   49.55379011   27.45680386   21.80330788   1     859  C
   53.80432630   27.16360086   21.82423619   1     860  C
   22.00779436   30.55414605   21.81622262   1     861  C
   26.25879744   30.26173066   21.79105804   1     862  C
   30.50975584   29.97266201   21.75602367   1     863  C
   34.76069594   29.68722374   21.72607465   1     864  C
   39.01172974   29.40345679   21.73277765   1     865  C
   43.26243681   29.11840970   21.75961506   1     866  C
   47.51309561   28.82978731   21.79268237   1     867  C
   51.76379276   28.53761893   21.82217893   1     868  C

siesta: Program's energy decomposition (eV):
siesta: Ebs     =    -46064.068809
siesta: Eions   =    244916.362311
siesta: Ena     =     54081.483834
siesta: Ekin    =     98652.495416
siesta: Enl     =     -5004.866669
siesta: Eso     =         0.000000
siesta: Edftu   =         0.000000
siesta: DEna    =      5684.373265
siesta: DUscf   =       288.951078
siesta: DUext   =         0.000000
siesta: Ex      =    -46299.084381
siesta: Ec      =     -4403.010260
siesta: Exc     =    -50702.094641
siesta: EbV     =         0.000000
siesta: eta*DQ  =         0.000000
siesta: Emadel  =         0.000000
siesta: Emeta   =         0.000000
siesta: Emolmec =         0.000000
siesta: Ekinion =         0.000000
siesta: Eharris =   -142001.045652
siesta: Etot    =   -142001.048026
siesta: FreeEng =   -142001.048026

siesta: Final energy (eV):
siesta:  Band Struct. =  -46064.068809
siesta:       Kinetic =   98652.495416
siesta:       Hartree = 2301993.493090
siesta:         Edftu =       0.000000
siesta:       Eso     =       0.000000
siesta:    Ext. field =       0.000000
siesta:         Exch. =  -46299.084381
siesta:         Corr. =   -4403.010260
siesta:     Bulk bias =       0.000000
siesta:   Exch.-corr. =  -50702.094641
siesta:  Ion-electron =-4693271.107429
siesta:       Ion-ion = 2201411.193535
siesta:       Ekinion =       0.000000
siesta: D3 dispersion =     -85.027997
siesta:         Total = -142001.048026
siesta:         Fermi =      -3.956587

siesta: Stress tensor (static) (eV/Ang**3):
siesta:    -0.016255    0.000002   -0.000000
siesta:     0.000002   -0.016257    0.000000
siesta:    -0.000000    0.000000   -0.002588

siesta: Cell volume =      45490.485415 Ang**3

siesta: Pressure (static):
siesta:                Solid            Molecule  Units
siesta:           0.00012743          0.00012743  Ry/Bohr**3
siesta:           0.01169982          0.01170002  eV/Ang**3
siesta:          18.74517886         18.74549290  kBar
(Free)E+ p_basis*V_orbitals  =     -141477.951323
(Free)Eharris+ p_basis*V_orbitals  =     -141477.948949

siesta: Electric dipole (a.u.)  =    0.000000   -0.000000   -0.000145
siesta: Electric dipole (Debye) =    0.000000   -0.000000   -0.000369

cite: Please see "Graphene.bib" for an exhaustive BiBTeX file.
cite: Please clearly indicate Siesta version in published work: 5.0.0-alpha-112-g6e4f53aee-dirty
cite: This calculation has made use of the following articles
cite: which are encouraged to be cited in a published work.
        Primary SIESTA paper
          DOI: www.doi.org/10.1088/0953-8984/14/11/302

>> End of run:   1-DEC-2024  17:11:21
Job completed