Runtime information:
* Directory : /n/holylabs/LABS/kaxiras_lab/axzhu/projects/AM207-final-project/N_5/PSO_z
>> Start of run:   1-DEC-2024  14:23:33

reinit: Reading from standard input
reinit: Dumping input in INPUT_TMP.31849
************************** Dump of input data file ****************************
#	Basic Information	#
SystemName      Graphene
SystemLabel     Graphene
#	Structural Information		#
%include structure.fdf
#       DFT Parameters          #
SolutionMethod diagon           # Method of solving system. Can change to OrderN, transiesta, etc.
#Diag.Algorithm MRRR
#NumberOfEigenStates -20 # this will include first 10 conduction bands
XC.Functional   GGA
XC.Authors      PBE
DFTD3 true
Spin non-polarized
Mesh.Cutoff 300 Ry              # Cut off plane waves with kinetic energy higher than this.
MaxSCFIterations 300            # Max number of iterations in the SCF loop.
DM.UseSaveDM true
MinSCFIterations       3
SCF.DM.Tolerance       0.0001
SCF.Mixer.Weight       0.10
SCF.Mixer.History      12
SCF.Mix.First          true
#             Basis             #
#PAO.BasisSize   DZP
PAO.Basis < basis.fdf
#	k-points, Bands, DOS		#
%block kgrid_Monkhorst_Pack
   1  0  0  0.0
   0  1  0  0.0
   0  0  1  0.0
%endblock kgrid_Monkhorst_Pack
#BandLinesScale ReciprocalLatticeVectors
#%block BandLines
#1   0.6666666667  0.3333333333  0.0000000000  K
#10  0.0000000000  0.0000000000  0.0000000000  Gamma
#10  0.5000000000  0.0000000000  0.0000000000  M
#10  0.6666666667  0.3333333333  0.0000000000  K
#%endblock BandLines
# Local density of states (LDOS)
# %block LocalDensityOfStates
# EF 8.40 8.50 eV
# %endblock LocalDensityOfStates
#             Wavefunctions             #
#WaveFuncKPointsScale ReciprocalLatticeVectors
#%block WaveFuncKPoints
#0.666 0.333 0.000 from 4375 to 4378 # K wavefuncs 4375 to 4378
#0.000 0.000 0.000 from 4375 to 4378 # Gamma wavefuncs 4375 to 4378
#0.500 0.000 0.000 from 4375 to 4378 # M wavefuncs 4375 to 4378
#%endblock WaveFuncKPoints
#WriteDenchar T
#       Geometry Optimisation           #
MD.UseSaveXV true
MD.TypeOfRun           CG                  # Conjugate Gradient
MD.NumCGsteps          200                 # Max number of steps
MD.MaxForceTol         0.01    eV/Ang      # 10 meV/Ang
MD.VariableCell        false               # Don't relax cell
MD.MaxCGDispl          0.5 Bohr            # Maximum displacement of any atom
# Fix COM in Z direction only
%block Geometry.Constraints
 center all 0.0 0.0 1.0
%endblock Geometry.Constraints
************************** End of input data file *****************************

reinit: -----------------------------------------------------------------------
reinit: System Name: Graphene
reinit: -----------------------------------------------------------------------
reinit: System Label: Graphene
reinit: -----------------------------------------------------------------------

initatom: Reading input for the pseudopotentials and atomic orbitals ----------
Species number:   1 Atomic number:    6 Label: C

---- Processing specs for species: C
Ground state valence configuration:   2s02  2p02
Reading pseudopotential information in PSML from:
  C.psml
PSML file version: 1.1
GGA--PBE XC_GGA_X_PBE--XC_GGA_C_PBE pb
 Using ATOM defaults for log grid...
PSML uuid: 297821e0-be41-11e7-6802-e1ff7dfff095

---- Pseudopotential check for C

Pseudized shells:
2s( 2.00) rc: 1.20
2p( 2.00) rc: 1.26
Valence configuration for ps generation: 2s:2p: Total charge:   4.000000
For C, standard SIESTA heuristics set lmxkb to 3
 (one more than the basis l, including polarization orbitals).
Use PS.lmax or PS.KBprojectors blocks to override.
C pseudopotential only contains V_ls up to l=1 -- lmxkb reset.

<basis_specs>
C                    Z=   6    Mass=  12.011        Charge= 0.99941
Lmxo=2 Lmxkb= 1    BasisType=split      Semic=F
L=0  Nsemic=0  Cnfigmx=2
          i=1  nzeta=1  polorb=0  (2s)
            splnorm:   0.15000
               vcte:    132.57
               rinn:    4.5256
               qcoe:    0.0000
               qyuk:    0.0000
               qwid:   0.10000E-01
                rcs:    6.0009
            lambdas:    1.0000
L=1  Nsemic=0  Cnfigmx=2
          i=1  nzeta=1  polorb=0  (2p)
            splnorm:   0.15000
               vcte:    6.0639
               rinn:    6.0646
               qcoe:    0.0000
               qyuk:    0.0000
               qwid:   0.10000E-01
                rcs:    6.7108
            lambdas:    1.0000
L=2  Nsemic=0  Cnfigmx=3
          i=1  nzeta=1  polorb=0  (3d)
            splnorm:   0.15000
               vcte:    14.478
               rinn:    4.3208
               qcoe:    0.0000
               qyuk:    0.0000
               qwid:   0.10000E-01
                rcs:    6.2254
            lambdas:    1.0000
L=0  Nkbl=1  erefs: 0.17977+309
L=1  Nkbl=1  erefs: 0.17977+309
</basis_specs>

atom: Called for C                     (Z =   6)
NOTE: C pseudopotential has channels up to l= 1
NOTE: PAOs with higher l will be generated with V_local

read_vps: Pseudopotential generation method:
read_vps: ONCVPSP-3.Hamann's oncvpsp
Valence charge in pseudo generation:    4.00000

read_vps: Pseudopotential includes a core correction:
read_vps: Pseudo-core for xc-correction

xc_check: Exchange-correlation functional:
xc_check: GGA Perdew, Burke & Ernzerhof 1996
Got Vlocal (oncv-fit) from psml data
Choosing vlocal chloc cutoff:  4.139772
qtot up to nchloc:    3.99998844
atom: Maximum radius for chlocal:    4.13977
atom: Maximum radius for r*vlocal+2*Zval:    4.13977
Reading KB projs from C psml data
Using scalar-relativistic projectors in PSML file

PSML: Kleinman-Bylander projectors:
   l= 0   rc=  1.231096   Ekb= 12.963096
   l= 0   rc=  1.231096   Ekb=  0.771007
   l= 1   rc=  1.294237   Ekb= -8.399923
   l= 1   rc=  1.294237   Ekb= -1.755033

PSML: Total number of  Kleinman-Bylander projectors:   8
atom: -------------------------------------------------------------------------

atom: SANKEY-TYPE ORBITALS:

atom: basis set generated (by rescaling the valence charge)
atom: for a cation of charge   0.9994

SPLIT: Orbitals with angular momentum L= 0

SPLIT: Basis orbitals for state 2s

   izeta = 1
                 lambda =    1.000000
                     rc =    6.099293
                 energy =   -2.079355
                kinetic =    1.090115
    potential(screened) =   -3.169470
       potential(ionic) =   -5.727963

[...]

SPLIT: Basis orbitals for state 2p

   izeta = 1
                 lambda =    1.000000
                     rc =    6.740804
                 energy =   -1.441657
                kinetic =    3.222058
    potential(screened) =   -4.663715
       potential(ionic) =   -7.206130
*Note: V_local used for l= 2

** Using vlocal for PAOs with L= 2

SPLIT: Orbitals with angular momentum L= 2

SPLIT: Basis orbitals for state 3d

   izeta = 1
                 lambda =    1.000000
                     rc =    6.253707
                 energy =    0.017329
                kinetic =    1.197074
    potential(screened) =   -1.179745
       potential(ionic) =   -2.838380
atom: Total number of Sankey-type orbitals:  9

atm_pop: Valence configuration (for local Pseudopot. screening):
 2s( 2.00)
 2p( 2.00)
 3d( 0.00)
Vna: chval, zval:    4.00000   4.00000

Vna:  Cut-off radius for the neutral-atom potential:   6.740804
comcore: Pseudo-core radius Rcore=  1.682861

atom: _________________________________________________________________________

prinput: Basis input

PAO.BasisType split

%block ChemicalSpeciesLabel
    1    6 C                       # Species index, atomic number, species label
%endblock ChemicalSpeciesLabel

%block PAO.Basis                 # Define Basis set
# WARNING: This information might be incomplete!
C                     3   0.999            # Label, l-shells, ionic net charge
 n=2   0   1                         # n, l, Nzeta
   6.099
   1.000
 n=2   1   1                         # n, l, Nzeta
   6.741
   1.000
 n=3   2   1                         # n, l, Nzeta
   6.254
   1.000
%endblock PAO.Basis

prinput: ----------------------------------------------------------------------

Dumping basis to NetCDF file C.ion.nc
coor:   Atomic-coordinates input format  =     Cartesian coordinates
coor:                                          (in Angstroms)

siesta: WARNING: XV file not found

siesta: Atomic coordinates (Bohr) and species
siesta:      2.68394   0.00000  34.54404  1        1
siesta:     10.73577   0.00000  34.61181  1        2
siesta:     18.78760   0.00000  34.49730  1        3
siesta:     26.83943   0.00000  34.56480  1        4
siesta:     34.89126   0.00000  34.50344  1        5
siesta:      6.70986   2.32436  34.58675  1        6
siesta:     14.76169   2.32436  34.53437  1        7
siesta:     22.81352   2.32436  34.59033  1        8
siesta:     30.86535   2.32436  34.61787  1        9
siesta:     38.91718   2.32436  34.59288  1       10
siesta:     10.73577   4.64873  34.57453  1       11
siesta:     18.78760   4.64873  34.55042  1       12
siesta:     26.83943   4.64873  34.54313  1       13
siesta:     34.89126   4.64873  34.52990  1       14
siesta:      6.70986   6.97309  34.49189  1       15
siesta:     14.76169   6.97309  34.61410  1       16
siesta:     22.81352   6.97309  34.59321  1       17
siesta:     30.86535   6.97309  34.61145  1       18
siesta:     38.91718   6.97309  34.60219  1       19
siesta:     10.73577   9.29745  34.55728  1       20
siesta:     18.78760   9.29745  34.57663  1       21
siesta:     26.83943   9.29745  34.54467  1       22
siesta:     34.89126   9.29745  34.47828  1       23
siesta:     42.94309   9.29745  34.56163  1       24
siesta:     14.76169  11.62182  34.61772  1       25
siesta:     22.81352  11.62182  34.53079  1       26
siesta:     30.86535  11.62182  34.56900  1       27
siesta:     38.91718  11.62182  34.56900  1       28
siesta:     10.73577  13.94618  34.58748  1       29
siesta:     18.78760  13.94618  34.54198  1       30
siesta:     26.83943  13.94618  34.47608  1       31
siesta:     34.89126  13.94618  34.61598  1       32
siesta:     42.94309  13.94618  34.60612  1       33
siesta:     14.76169  16.27054  34.52813  1       34
siesta:     22.81352  16.27054  34.49903  1       35
siesta:     30.86535  16.27054  34.61083  1       36
siesta:     38.91718  16.27054  34.60830  1       37
siesta:     46.96901  16.27054  34.53820  1       38
siesta:     18.78760  18.59491  34.61443  1       39
siesta:     26.83943  18.59491  34.45813  1       40
siesta:     34.89126  18.59491  34.57768  1       41
siesta:     42.94309  18.59491  34.62017  1       42
siesta:     14.76169  20.91927  34.56845  1       43
siesta:     22.81352  20.91927  34.60208  1       44
siesta:     30.86535  20.91927  34.55872  1       45
siesta:     38.91718  20.91927  34.57056  1       46
siesta:     46.96901  20.91927  34.60481  1       47
siesta:     18.78760  23.24363  34.42849  1       48
siesta:     26.83943  23.24363  34.56140  1       49
siesta:     34.89126  23.24363  34.57450  1       50
siesta:     42.94309  23.24363  34.59642  1       51
siesta:     50.99492  23.24363  34.54320  1       52
siesta:     22.81352  25.56799  34.59106  1       53
[...]
%endblock SCF.Mixer.Pulay

DFT-D3: loading default parameters for functional PBE.
DM_history_depth set to one: no extrapolation allowed by default for geometry relaxation
Size of DM history Fstack: 1
Total number of electrons:   976.000000
Total ionic charge:   976.000000

* ProcessorY, Blocksize:    8  34

* Orbital distribution balance (max,min):    54    34

 Kpoints in:            1 . Kpoints trimmed:            1

siesta: k-grid: Number of k-points = 1
siesta: k-points from Monkhorst-Pack grid
siesta: k-cutoff (effective) =     9.607 Ang
siesta: k-point supercell and displacements
siesta: k-grid:     1     0     0      0.000
siesta: k-grid:     0     1     0      0.000
siesta: k-grid:     0     0     1      0.000

diag: Algorithm                                     = D&C
diag: Parallel over k                               =   F
diag: Use parallel 2D distribution                  =   T
diag: Parallel block-size                           = 34
diag: Parallel distribution                         =     8 x     8
diag: Used triangular part                          = Lower
diag: Absolute tolerance                            =  0.100E-15
diag: Orthogonalization factor                      =  0.100E-05

siesta: Constraint v=[  0.00000,  0.00000,  1.00000] (244): center-dir
  [ 1 -- 244 ]

ts: **************************************************************
ts: Save H and S matrices                           =    F
ts: Save DM and EDM matrices                        =    F
ts: Only save the overlap matrix S                  =    F
ts: **************************************************************

************************ Begin: TS CHECKS AND WARNINGS ************************
************************ End: TS CHECKS AND WARNINGS **************************

                        Begin CG opt. move =      0

outcell: Unit cell vectors (Ang):
       19.173802   -1.230000    0.000000
       10.652112   15.990000    0.000000
        0.000000    0.000000   40.000000

outcell: Cell vector modules (Ang)   :   19.213214   19.213214   40.000000
outcell: Cell angles (23,13,12) (deg):     90.0000     90.0000     60.0000
outcell: Cell volume (Ang**3)        :  12787.6480
<dSpData1D:S at geom step 0
  <sparsity:sparsity for geom step 0
    nrows_g=2196 nrows=54 sparsity=.0107 nnzs=51799, refcount: 7>
  <dData1D:(new from dSpData1D) n=51799, refcount: 1>
refcount: 1>
new_DM -- step:     1
Initializing Density Matrix...

Attempting to read DM from file... Failed...
DM filled with atomic data:
<dSpData2D:DM initialized from atoms
  <sparsity:sparsity for geom step 0
    nrows_g=2196 nrows=54 sparsity=.0107 nnzs=51799, refcount: 8>
  <dData2D:DM n=51799 m=1, refcount: 1>
refcount: 1>
No. of atoms with KB's overlaping orbs in proc 0. Max # of overlaps:     104     231

InitMesh: MESH = 180 x 180 x 432 = 13996800
InitMesh: Mesh cutoff (required, used) =   300.000   322.366 Ry
New grid distribution [1]: sub = 2
New grid distribution [2]: sub = 2
New grid distribution [3]: sub = 2
Setting up quadratic distribution...

stepf: Fermi-Dirac step function

siesta: Program's energy decomposition (eV):
siesta: Ebs     =    -14256.581308
siesta: Eions   =     68847.456686
siesta: Ena     =     15203.541609
siesta: Ekin    =     26883.300642
siesta: Enl     =     -1209.250094
siesta: Eso     =         0.000000
siesta: Edftu   =         0.000000
siesta: DEna    =      2065.938598
siesta: DUscf   =       132.243544
siesta: DUext   =         0.000000
siesta: Ex      =    -12861.245243
siesta: Ec      =     -1240.346056
siesta: Exc     =    -14101.591299
siesta: EbV     =         0.000000
siesta: eta*DQ  =         0.000000
siesta: Emadel  =         0.000000
siesta: Emeta   =         0.000000
siesta: Emolmec =         0.000000
siesta: Ekinion =         0.000000
siesta: Eharris =    -40839.236491
siesta: Etot    =    -39873.273687
siesta: FreeEng =    -39873.273687

SCF Convergence by DM+H criterion
max |DM_out - DM_in|         :     0.0000309345
max |H_out - H_in|      (eV) :     0.0002579623
SCF cycle converged after 11 iterations

Using DM_out to compute the final energy and forces
No. of atoms with KB's overlaping orbs in proc 0. Max # of overlaps:     104     231
System symmetry is of type slab but no DFTD3.Periodic list was found. Attempting to guess symmetry for D3.
Could not guess the right amount of periodicity directions for D3.
Enabling periodicity on all directions.

siesta: E_KS(eV) =           -39917.6531

siesta: E_KS - E_eggbox =    -39917.6531

siesta: Atomic forces (eV/Ang):
   Tot   -0.001679   -0.000426   -0.000153
   Max    1.202386
   Res    0.209667    sqrt( Sum f_i^2 / 3N )
   Max    1.202386    constrained

Stress tensor Voigt[x,y,z,yz,xz,xy] (kbar):      -25.39      -25.38       -4.69       -0.00       -0.00       -0.00
(Free)E + p*V (eV/cell)   -39770.0983
Target enthalpy (eV/cell)   -39917.6531

[...]

outcell: Cell vector modules (Ang)   :   19.213214   19.213214   40.000000
outcell: Cell angles (23,13,12) (deg):     90.0000     90.0000     60.0000
outcell: Cell volume (Ang**3)        :  12787.6480
<dSpData1D:S at geom step 1
  <sparsity:sparsity for geom step 1
    nrows_g=2196 nrows=54 sparsity=.0107 nnzs=51784, refcount: 7>
  <dData1D:(new from dSpData1D) n=51784, refcount: 1>
refcount: 1>
new_DM -- step:     2
Re-using DM from previous geometries...
Number of DMs in history: 1
 DM extrapolation coefficients:
1   1.00000
New DM after history re-use:
<dSpData2D:SpM extrapolated using coords
  <sparsity:sparsity for geom step 1
    nrows_g=2196 nrows=54 sparsity=.0107 nnzs=51784, refcount: 9>
  <dData2D:(temp array for extrapolation) n=51784 m=1, refcount: 1>
refcount: 1>
No. of atoms with KB's overlaping orbs in proc 0. Max # of overlaps:     105     231

[...]

        iscf     Eharris(eV)        E_KS(eV)     FreeEng(eV)     dDmax    Ef(eV) dHmax(eV)
   scf:    1   -39918.720560   -39918.246345   -39918.246345  0.033825 -3.842026  0.710222
   scf:    2   -39915.515310   -39917.418985   -39917.418985  0.039585 -3.872636  2.523630
   scf:    3   -39918.431625   -39918.295364   -39918.295364  0.031690 -3.838712  0.117112
   scf:    4   -39918.299221   -39918.297911   -39918.297911  0.002327 -3.837779  0.021097
   scf:    5   -39918.298977   -39918.298499   -39918.298499  0.000441 -3.837455  0.008531
   scf:    6   -39918.298756   -39918.298639   -39918.298639  0.000227 -3.837355  0.003623
   scf:    7   -39918.298676   -39918.298659   -39918.298659  0.000064 -3.837325  0.002009
   scf:    8   -39918.298676   -39918.298669   -39918.298669  0.000062 -3.837299  0.000441

[...]

cgvc: Finished line minimization    1.  Mean atomic displacement =    0.0279

[...]

Using DM_out to compute the final energy and forces
No. of atoms with KB's overlaping orbs in proc 0. Max # of overlaps:     103     227
System symmetry is of type slab but no DFTD3.Periodic list was found. Attempting to guess symmetry for D3.
Periodicity direction guess succeeded.

[...]

cgvc: Finished line minimization   31.  Mean atomic displacement =    0.0018

[...]

                        Begin CG opt. move =     76

outcell: Unit cell vectors (Ang):
       19.173802   -1.230000    0.000000
       10.652112   15.990000    0.000000
        0.000000    0.000000   40.000000

outcell: Cell vector modules (Ang)   :   19.213214   19.213214   40.000000
outcell: Cell angles (23,13,12) (deg):     90.0000     90.0000     60.0000
outcell: Cell volume (Ang**3)        :  12787.6480
<dSpData1D:S at geom step 76
  <sparsity:sparsity for geom step 76
    nrows_g=2196 nrows=54 sparsity=.0106 nnzs=51031, refcount: 7>
  <dData1D:(new from dSpData1D) n=51031, refcount: 1>
refcount: 1>
new_DM -- step:    77
Re-using DM from previous geometries...
Number of DMs in history: 1
 DM extrapolation coefficients:
1   1.00000
New DM after history re-use:
<dSpData2D:SpM extrapolated using coords
  <sparsity:sparsity for geom step 76
    nrows_g=2196 nrows=54 sparsity=.0106 nnzs=51031, refcount: 9>
  <dData2D:(temp array for extrapolation) n=51031 m=1, refcount: 1>
refcount: 1>
No. of atoms with KB's overlaping orbs in proc 0. Max # of overlaps:     103     227

InitMesh: MESH = 180 x 180 x 432 = 13996800
InitMesh: Mesh cutoff (required, used) =   300.000   322.366 Ry
New grid distribution [1]: sub = 2
New grid distribution [2]: sub = 2
New grid distribution [3]: sub = 2
Setting up quadratic distribution...

        iscf     Eharris(eV)        E_KS(eV)     FreeEng(eV)     dDmax    Ef(eV) dHmax(eV)
   scf:    1   -39918.487883   -39918.492918   -39918.492918  0.000884 -3.572242  0.008302
   scf:    2   -39918.492135   -39918.492714   -39918.492714  0.000840 -3.572302  0.026220
   scf:    3   -39918.493013   -39918.492971   -39918.492971  0.000627 -3.572260  0.001689
   scf:    4   -39918.492978   -39918.492976   -39918.492976  0.000060 -3.572264  0.000567

SCF Convergence by DM+H criterion
max |DM_out - DM_in|         :     0.0000599748
max |H_out - H_in|      (eV) :     0.0005671480
SCF cycle converged after 4 iterations

Using DM_out to compute the final energy and forces
No. of atoms with KB's overlaping orbs in proc 0. Max # of overlaps:     103     227
System symmetry is of type slab but no DFTD3.Periodic list was found. Attempting to guess symmetry for D3.
Could not guess the right amount of periodicity directions for D3.
Enabling periodicity on all directions.

siesta: E_KS(eV) =           -39918.4958

siesta: Atomic forces (eV/Ang):
   Tot    0.000352   -0.000056   -0.004020
   Max    0.008285
   Res    0.002391    sqrt( Sum f_i^2 / 3N )
   Max    0.008287    constrained

Stress tensor Voigt[x,y,z,yz,xz,xy] (kbar):      -25.67      -25.67       -4.14       -0.00        0.00        0.00
(Free)E + p*V (eV/cell)   -39770.8982
Target enthalpy (eV/cell)   -39918.4958

outcoor: Relaxed atomic coordinates (Ang):
    1.42028398    0.00066487   18.17219123   1       1  C
    5.68116360    0.00178583   18.22639989   1       2  C
    9.94181950   -0.00009716   18.25912140   1       3  C
   14.20215285   -0.00171569   18.21860307   1       4  C
   18.46280144   -0.00035737   18.17113753   1       5  C
    3.55025251    1.23160123   18.19791165   1       6  C
    7.81120373    1.23111171   18.25168219   1       7  C
   12.07168126    1.22891494   18.24851789   1       8  C
   16.33175134    1.22889117   18.19627552   1       9  C
   20.59280122    1.23087400   18.18594900   1      10  C
    5.68043385    2.46153744   18.23311346   1      11  C
    9.94140188    2.45987770   18.26176057   1      12  C
   14.20156049    2.45858041   18.23096922   1      13  C
   18.46180331    2.45978520   18.19770775   1      14  C
    3.54945294    3.69117814   18.21836948   1      15  C
    7.81109643    3.69073433   18.25878129   1      16  C
   12.07180630    3.68925839   18.25600335   1      17  C
   16.33154366    3.68912726   18.22477014   1      18  C
   20.59221153    3.69047682   18.22033084   1      19  C
    5.68032160    4.92093743   18.24904631   1      20  C
    9.94182496    4.92000315   18.26452583   1      21  C
   14.20180154    4.91926144   18.24924439   1      22  C
   18.46168341    4.91983853   18.23636157   1      23  C
   22.72325919    4.92050538   18.24644030   1      24  C
    7.81160588    6.15021131   18.26228368   1      25  C
   12.07237819    6.14955215   18.25990344   1      26  C
   16.33198667    6.14953662   18.25272255   1      27  C
   20.59257744    6.14999099   18.25568285   1      28  C
    5.68097934    7.38000424   18.25964242   1      29  C
    9.94280973    7.37980679   18.25718533   1      30  C
   14.20277766    7.37986771   18.25644243   1      31  C
   18.46256708    7.37992964   18.26604493   1      32  C
   22.72404133    7.37971962   18.26586582   1      33  C
    7.81244872    8.60959180   18.25295837   1      34  C
   12.07341627    8.60998780   18.24682667   1      35  C
   16.33300155    8.61039749   18.26336511   1      36  C
   20.59358057    8.60972731   18.27567531   1      37  C
   24.85558794    8.60910938   18.25554201   1      38  C
    9.94342026    9.83957311   18.23305804   1      39  C
   14.20365853    9.84058352   18.24382732   1      40  C
   18.46349014    9.84034553   18.27540307   1      41  C
   22.72478241    9.83906917   18.26653928   1      42  C
    7.81292639   11.06890129   18.22817897   1      43  C
   12.07400284   11.07032069   18.21789247   1      44  C
   16.33387426   11.07105819   18.25477418   1      45  C
   20.59431283   11.06967609   18.27520640   1      46  C
   24.85578937   11.06847220   18.23727088   1      47  C
    9.94340401   12.29937837   18.19909873   1      48  C
   14.20404417   12.30111875   18.22000357   1      49  C
   18.46402431   12.30077524   18.26629748   1      50  C
   22.72497436   12.29871334   18.25565873   1      51  C
   26.98616524   12.29849985   18.19971481   1      52  C
   12.07352099   13.53047470   18.18735613   1      53  C
   16.33381768   13.53147770   18.23680929   1      54  C
   20.59426719   13.52977321   18.26538745   1      55  C
   24.85512860   13.52824966   18.22073282   1      56  C
    9.94244734   14.75945993   18.17318530   1      57  C
   14.20337693   14.76153773   18.19871876   1      58  C
   18.46378920   14.76101862   18.25398492   1      59  C
   22.72442069   14.75871311   18.24690193   1      60  C
[...]
   19.33652847   11.15052282   21.74226604   1     230  C
   23.56216945   10.60747268   21.75535843   1     231  C
   13.15408056   13.18598015   21.79553277   1     232  C
   17.38046373   12.64172067   21.75485295   1     233  C
   21.60666575   12.09930067   21.74817774   1     234  C
   25.83183906   11.55532926   21.78018321   1     235  C
   11.19877768   14.67899694   21.81653335   1     236  C
   15.42479414   14.13329205   21.77895241   1     237  C
   19.65090454   13.59041843   21.74635288   1     238  C
   23.87660677   13.04780265   21.76831090   1     239  C
   28.10191045   12.50240733   21.80521878   1     240  C
   13.46953659   15.62570119   21.80586206   1     241  C
   17.69520225   15.08145316   21.75643401   1     242  C
   21.92117781   14.53942035   21.75144126   1     243  C
   26.14676833   13.99552360   21.79548986   1     244  C

siesta: Program's energy decomposition (eV):
siesta: Ebs     =    -12950.995300
siesta: Eions   =     68847.456686
siesta: Ena     =     15202.710843
siesta: Ekin    =     27730.044997
siesta: Enl     =     -1406.956731
siesta: Eso     =         0.000000
siesta: Edftu   =         0.000000
siesta: DEna    =      1598.017160
siesta: DUscf   =        81.255370
siesta: DUext   =         0.000000
siesta: Ex      =    -13014.761040
siesta: Ec      =     -1237.541425
siesta: Exc     =    -14252.302465
siesta: EbV     =         0.000000
siesta: eta*DQ  =         0.000000
siesta: Emadel  =         0.000000
siesta: Emeta   =         0.000000
siesta: Emolmec =         0.000000
siesta: Ekinion =         0.000000
siesta: Eharris =    -39918.492978
siesta: Etot    =    -39918.495792
siesta: FreeEng =    -39918.495792

siesta: Final energy (eV):
siesta:  Band Struct. =  -12950.995300
siesta:       Kinetic =   27730.044997
siesta:       Hartree =  646001.522241
siesta:         Edftu =       0.000000
siesta:       Eso     =       0.000000
siesta:    Ext. field =       0.000000
siesta:         Exch. =  -13014.761040
siesta:         Corr. =   -1237.541425
siesta:     Bulk bias =       0.000000
siesta:   Exch.-corr. =  -14252.302465
siesta:  Ion-electron =-1317102.215284
siesta:       Ion-ion =  617728.262999
siesta:       Ekinion =       0.000000
siesta: D3 dispersion =     -23.808280
siesta:         Total =  -39918.495792
siesta:         Fermi =      -3.572264

siesta: Stress tensor (static) (eV/Ang**3):
siesta:    -0.016020    0.000002    0.000000
siesta:     0.000002   -0.016022   -0.000000
siesta:     0.000000   -0.000000   -0.002585

siesta: Cell volume =      12787.647974 Ang**3

siesta: Pressure (static):
siesta:                Solid            Molecule  Units
siesta:           0.00012571          0.00012564  Ry/Bohr**3
siesta:           0.01154220          0.01153594  eV/Ang**3
siesta:          18.49264571         18.48261210  kBar
(Free)E+ p_basis*V_orbitals  =      -39771.450175
(Free)Eharris+ p_basis*V_orbitals  =      -39771.447361

siesta: Electric dipole (a.u.)  =    0.000000    0.000000   -0.000071
siesta: Electric dipole (Debye) =    0.000000    0.000000   -0.000180

cite: Please see "Graphene.bib" for an exhaustive BiBTeX file.
cite: Please clearly indicate Siesta version in published work: 5.0.0-alpha-112-g6e4f53aee-dirty
cite: This calculation has made use of the following articles
cite: which are encouraged to be cited in a published work.
        Primary SIESTA paper
          DOI: www.doi.org/10.1088/0953-8984/14/11/302

>> End of run:   1-DEC-2024  14:53:42
Job completed