Runtime information:
* Directory : /n/holylabs/LABS/kaxiras_lab/axzhu/projects/AM207-final-project/N_7/PSO-2params
>> Start of run:  30-NOV-2024  21:20:58

reinit: Reading from standard input
reinit: Dumping input in INPUT_TMP.89284
************************** Dump of input data file ****************************
#	Basic Information	#
SystemName      Graphene
SystemLabel     Graphene
#	Structural Information		#
%include structure.fdf
#       DFT Parameters          #
SolutionMethod diagon           # Method of solving system. Can change to OrderN, transiesta, etc.
#Diag.Algorithm MRRR
#NumberOfEigenStates -20 # this will include first 10 conduction bands
XC.Functional   GGA
XC.Authors      PBE
DFTD3 true
Spin non-polarized
Mesh.Cutoff 300 Ry              # Cut off plane waves with kinetic energy higher than this.
MaxSCFIterations 300            # Max number of iterations in the SCF loop.
DM.UseSaveDM true
MinSCFIterations       3
SCF.DM.Tolerance       0.0001
SCF.Mixer.Weight       0.10
SCF.Mixer.History      12
SCF.Mix.First          true
#             Basis             #
#PAO.BasisSize   DZP
PAO.Basis < basis.fdf
#	k-points, Bands, DOS		#
%block kgrid_Monkhorst_Pack
   1  0  0  0.0
   0  1  0  0.0
   0  0  1  0.0
%endblock kgrid_Monkhorst_Pack
#BandLinesScale ReciprocalLatticeVectors
#%block BandLines
#1   0.6666666667  0.3333333333  0.0000000000  K
#10  0.0000000000  0.0000000000  0.0000000000  Gamma
#10  0.5000000000  0.0000000000  0.0000000000  M
#10  0.6666666667  0.3333333333  0.0000000000  K
#%endblock BandLines
# Local density of states (LDOS)
# %block LocalDensityOfStates
# EF 8.40 8.50 eV
# %endblock LocalDensityOfStates
#             Wavefunctions             #
#WaveFuncKPointsScale ReciprocalLatticeVectors
#%block WaveFuncKPoints
#0.666 0.333 0.000 from 4375 to 4378 # K wavefuncs 4375 to 4378
#0.000 0.000 0.000 from 4375 to 4378 # Gamma wavefuncs 4375 to 4378
#0.500 0.000 0.000 from 4375 to 4378 # M wavefuncs 4375 to 4378
#%endblock WaveFuncKPoints
#WriteDenchar T
#       Geometry Optimisation           #
MD.UseSaveXV true
MD.TypeOfRun           CG                  # Conjugate Gradient
MD.NumCGsteps          200                 # Max number of steps
MD.MaxForceTol         0.01    eV/Ang      # 10 meV/Ang
MD.VariableCell        false               # Don't relax cell
MD.MaxCGDispl          0.5 Bohr            # Maximum displacement of any atom
# Fix COM in Z direction only
%block Geometry.Constraints
 center all 0.0 0.0 1.0
%endblock Geometry.Constraints
************************** End of input data file *****************************

reinit: -----------------------------------------------------------------------
reinit: System Name: Graphene
reinit: -----------------------------------------------------------------------
reinit: System Label: Graphene
reinit: -----------------------------------------------------------------------

initatom: Reading input for the pseudopotentials and atomic orbitals ----------
Species number:   1 Atomic number:    6 Label: C

---- Processing specs for species: C
Ground state valence configuration:   2s02  2p02
Reading pseudopotential information in PSML from:
  C.psml
PSML file version: 1.1
GGA--PBE XC_GGA_X_PBE--XC_GGA_C_PBE pb
 Using ATOM defaults for log grid...
PSML uuid: 297821e0-be41-11e7-6802-e1ff7dfff095

---- Pseudopotential check for C

Pseudized shells:
2s( 2.00) rc: 1.20
2p( 2.00) rc: 1.26
Valence configuration for ps generation: 2s:2p: Total charge:   4.000000
For C, standard SIESTA heuristics set lmxkb to 3
 (one more than the basis l, including polarization orbitals).
Use PS.lmax or PS.KBprojectors blocks to override.
C pseudopotential only contains V_ls up to l=1 -- lmxkb reset.

<basis_specs>
C                    Z=   6    Mass=  12.011        Charge= 0.99941
Lmxo=2 Lmxkb= 1    BasisType=split      Semic=F
L=0  Nsemic=0  Cnfigmx=2
          i=1  nzeta=1  polorb=0  (2s)
            splnorm:   0.15000
               vcte:    132.57
               rinn:    4.5256
               qcoe:    0.0000
               qyuk:    0.0000
               qwid:   0.10000E-01
                rcs:    6.0009
            lambdas:    1.0000
L=1  Nsemic=0  Cnfigmx=2
          i=1  nzeta=1  polorb=0  (2p)
            splnorm:   0.15000
               vcte:    6.0639
               rinn:    6.0646
               qcoe:    0.0000
               qyuk:    0.0000
               qwid:   0.10000E-01
                rcs:    6.7108
            lambdas:    1.0000
L=2  Nsemic=0  Cnfigmx=3
          i=1  nzeta=1  polorb=0  (3d)
            splnorm:   0.15000
               vcte:    14.478
               rinn:    4.3208
               qcoe:    0.0000
               qyuk:    0.0000
               qwid:   0.10000E-01
                rcs:    6.2254
            lambdas:    1.0000
L=0  Nkbl=1  erefs: 0.17977+309
L=1  Nkbl=1  erefs: 0.17977+309
</basis_specs>

atom: Called for C                     (Z =   6)
NOTE: C pseudopotential has channels up to l= 1
NOTE: PAOs with higher l will be generated with V_local

read_vps: Pseudopotential generation method:
read_vps: ONCVPSP-3.Hamann's oncvpsp
Valence charge in pseudo generation:    4.00000

read_vps: Pseudopotential includes a core correction:
read_vps: Pseudo-core for xc-correction

xc_check: Exchange-correlation functional:
xc_check: GGA Perdew, Burke & Ernzerhof 1996
Got Vlocal (oncv-fit) from psml data
Choosing vlocal chloc cutoff:  4.139772
qtot up to nchloc:    3.99998844
atom: Maximum radius for chlocal:    4.13977
atom: Maximum radius for r*vlocal+2*Zval:    4.13977
Reading KB projs from C psml data
Using scalar-relativistic projectors in PSML file

PSML: Kleinman-Bylander projectors:
   l= 0   rc=  1.231096   Ekb= 12.963096
   l= 0   rc=  1.231096   Ekb=  0.771007
   l= 1   rc=  1.294237   Ekb= -8.399923
   l= 1   rc=  1.294237   Ekb= -1.755033

PSML: Total number of  Kleinman-Bylander projectors:   8
atom: -------------------------------------------------------------------------

atom: SANKEY-TYPE ORBITALS:

atom: basis set generated (by rescaling the valence charge)
atom: for a cation of charge   0.9994

SPLIT: Orbitals with angular momentum L= 0

SPLIT: Basis orbitals for state 2s

   izeta = 1
                 lambda =    1.000000
                     rc =    6.099293
                 energy =   -2.079355
                kinetic =    1.090115
    potential(screened) =   -3.169470
       potential(ionic) =   -5.727963

[...]

SPLIT: Basis orbitals for state 2p

   izeta = 1
                 lambda =    1.000000
                     rc =    6.740804
                 energy =   -1.441657
                kinetic =    3.222058
    potential(screened) =   -4.663715
       potential(ionic) =   -7.206130
*Note: V_local used for l= 2

** Using vlocal for PAOs with L= 2

SPLIT: Orbitals with angular momentum L= 2

SPLIT: Basis orbitals for state 3d

   izeta = 1
                 lambda =    1.000000
                     rc =    6.253707
                 energy =    0.017329
                kinetic =    1.197074
    potential(screened) =   -1.179745
       potential(ionic) =   -2.838380
atom: Total number of Sankey-type orbitals:  9

atm_pop: Valence configuration (for local Pseudopot. screening):
 2s( 2.00)
 2p( 2.00)
 3d( 0.00)
Vna: chval, zval:    4.00000   4.00000

Vna:  Cut-off radius for the neutral-atom potential:   6.740804
comcore: Pseudo-core radius Rcore=  1.682861

atom: _________________________________________________________________________

prinput: Basis input

PAO.BasisType split

%block ChemicalSpeciesLabel
    1    6 C                       # Species index, atomic number, species label
%endblock ChemicalSpeciesLabel

%block PAO.Basis                 # Define Basis set
# WARNING: This information might be incomplete!
C                     3   0.999            # Label, l-shells, ionic net charge
 n=2   0   1                         # n, l, Nzeta
   6.099
   1.000
 n=2   1   1                         # n, l, Nzeta
   6.741
   1.000
 n=3   2   1                         # n, l, Nzeta
   6.254
   1.000
%endblock PAO.Basis

prinput: ----------------------------------------------------------------------

Dumping basis to NetCDF file C.ion.nc
coor:   Atomic-coordinates input format  =     Cartesian coordinates
coor:                                          (in Angstroms)

siesta: WARNING: XV file not found

siesta: Atomic coordinates (Bohr) and species
siesta:      2.68394   0.00000  34.55471  1        1
siesta:     10.73577   0.00000  34.55471  1        2
siesta:     18.78760   0.00000  34.55471  1        3
siesta:     26.83943   0.00000  34.55471  1        4
siesta:     34.89126   0.00000  34.55471  1        5
siesta:     42.94309   0.00000  34.55471  1        6
siesta:     50.99492   0.00000  34.55471  1        7
siesta:      6.70986   2.32436  34.55471  1        8
siesta:     14.76169   2.32436  34.55471  1        9
siesta:     22.81352   2.32436  34.55471  1       10
siesta:     30.86535   2.32436  34.55471  1       11
siesta:     38.91718   2.32436  34.55471  1       12
siesta:     46.96901   2.32436  34.55471  1       13
siesta:     55.02084   2.32436  34.55471  1       14
siesta:     10.73577   4.64873  34.55471  1       15
siesta:     18.78760   4.64873  34.55471  1       16
siesta:     26.83943   4.64873  34.55471  1       17
siesta:     34.89126   4.64873  34.55471  1       18
siesta:     42.94309   4.64873  34.55471  1       19
siesta:     50.99492   4.64873  34.55471  1       20
siesta:      6.70986   6.97309  34.55471  1       21
siesta:     14.76169   6.97309  34.55471  1       22
siesta:     22.81352   6.97309  34.55471  1       23
siesta:     30.86535   6.97309  34.55471  1       24
siesta:     38.91718   6.97309  34.55471  1       25
siesta:     46.96901   6.97309  34.55471  1       26
siesta:     55.02084   6.97309  34.55471  1       27
siesta:     10.73577   9.29745  34.55471  1       28
siesta:     18.78760   9.29745  34.55471  1       29
siesta:     26.83943   9.29745  34.55471  1       30
siesta:     34.89126   9.29745  34.55471  1       31
siesta:     42.94309   9.29745  34.55471  1       32
siesta:     50.99492   9.29745  34.55471  1       33
siesta:     59.04675   9.29745  34.55471  1       34
siesta:     14.76169  11.62182  34.55471  1       35
siesta:     22.81352  11.62182  34.55471  1       36
siesta:     30.86535  11.62182  34.55471  1       37
siesta:     38.91718  11.62182  34.55471  1       38
siesta:     46.96901  11.62182  34.55471  1       39
siesta:     55.02084  11.62182  34.55471  1       40
siesta:     10.73577  13.94618  34.55471  1       41
siesta:     18.78760  13.94618  34.55471  1       42
siesta:     26.83943  13.94618  34.55471  1       43
siesta:     34.89126  13.94618  34.55471  1       44
siesta:     42.94309  13.94618  34.55471  1       45
siesta:     50.99492  13.94618  34.55471  1       46
siesta:     59.04675  13.94618  34.55471  1       47
siesta:     14.76169  16.27054  34.55471  1       48
siesta:     22.81352  16.27054  34.55471  1       49
siesta:     30.86535  16.27054  34.55471  1       50
siesta:     38.91718  16.27054  34.55471  1       51
siesta:     46.96901  16.27054  34.55471  1       52
siesta:     55.02084  16.27054  34.55471  1       53
[...]
redata: Save all siesta data in one NC              =   F
redata: ***********************************************************************

%block SCF.Mixers
  Pulay
%endblock SCF.Mixers

%block SCF.Mixer.Pulay
  # Mixing method
  method pulay
  variant stable

  # Mixing options
  weight 0.1000
  weight.linear 0.1000
  history 12
%endblock SCF.Mixer.Pulay

DFT-D3: loading default parameters for functional PBE.
DM_history_depth set to one: no extrapolation allowed by default for geometry relaxation
Size of DM history Fstack: 1
Total number of electrons:  2032.000000
Total ionic charge:  2032.000000

* ProcessorY, Blocksize:    8  64

* Orbital distribution balance (max,min):   128    64

 Kpoints in:            1 . Kpoints trimmed:            1

siesta: k-grid: Number of k-points = 1
siesta: k-points from Monkhorst-Pack grid
siesta: k-cutoff (effective) =    13.861 Ang
siesta: k-point supercell and displacements
siesta: k-grid:     1     0     0      0.000
siesta: k-grid:     0     1     0      0.000
siesta: k-grid:     0     0     1      0.000

diag: Algorithm                                     = D&C
diag: Parallel over k                               =   F
diag: Use parallel 2D distribution                  =   T
diag: Parallel block-size                           = 64
diag: Parallel distribution                         =     8 x     8
diag: Used triangular part                          = Lower
diag: Absolute tolerance                            =  0.100E-15
diag: Orthogonalization factor                      =  0.100E-05

siesta: Constraint v=[  0.00000,  0.00000,  1.00000] (508): center-dir
  [ 1 -- 508 ]

ts: **************************************************************
ts: Save H and S matrices                           =    F
ts: Save DM and EDM matrices                        =    F
ts: Only save the overlap matrix S                  =    F
ts: **************************************************************

************************ Begin: TS CHECKS AND WARNINGS ************************
************************ End: TS CHECKS AND WARNINGS **************************

                        Begin CG opt. move =      0

outcell: Unit cell vectors (Ang):
       27.695492   -1.230000    0.000000
       14.912957   23.370000    0.000000
        0.000000    0.000000   40.000000

outcell: Cell vector modules (Ang)   :   27.722792   27.722792   40.000000
outcell: Cell angles (23,13,12) (deg):     90.0000     90.0000     60.0000
outcell: Cell volume (Ang**3)        :  26623.4638
<dSpData1D:S at geom step 0
  <sparsity:sparsity for geom step 0
    nrows_g=4572 nrows=128 sparsity=.0059 nnzs=122520, refcount: 7>
  <dData1D:(new from dSpData1D) n=122520, refcount: 1>
refcount: 1>
new_DM -- step:     1
Initializing Density Matrix...

Attempting to read DM from file... Failed...
DM filled with atomic data:
<dSpData2D:DM initialized from atoms
  <sparsity:sparsity for geom step 0
    nrows_g=4572 nrows=128 sparsity=.0059 nnzs=122520, refcount: 8>
  <dData2D:DM n=122520 m=1, refcount: 1>
refcount: 1>
No. of atoms with KB's overlaping orbs in proc 0. Max # of overlaps:     263     231

InitMesh: MESH = 256 x 256 x 432 = 28311552
InitMesh: Mesh cutoff (required, used) =   300.000   314.229 Ry
New grid distribution [1]: sub = 2
New grid distribution [2]: sub = 2
New grid distribution [3]: sub = 2
Setting up quadratic distribution...

stepf: Fermi-Dirac step function

siesta: Program's energy decomposition (eV):
siesta: Ebs     =    -29690.437779
siesta: Eions   =    143338.147527
siesta: Ena     =     31651.125660
siesta: Ekin    =     55982.486603
siesta: Enl     =     -2520.577763
siesta: Eso     =         0.000000
siesta: Edftu   =         0.000000
siesta: DEna    =      4297.914319
siesta: DUscf   =       275.088376
siesta: DUext   =         0.000000
siesta: Ex      =    -26779.465768
siesta: Ec      =     -2582.735156
siesta: Exc     =    -29362.200923
siesta: EbV     =         0.000000
siesta: eta*DQ  =         0.000000
siesta: Emadel  =         0.000000
siesta: Emeta   =         0.000000
siesta: Emolmec =         0.000000
siesta: Ekinion =         0.000000
siesta: Eharris =    -85022.773100
siesta: Etot    =    -83014.311256
siesta: FreeEng =    -83014.311256

SCF Convergence by DM+H criterion
max |DM_out - DM_in|         :     0.0000762009
max |H_out - H_in|      (eV) :     0.0004086203
SCF cycle converged after 10 iterations

Using DM_out to compute the final energy and forces
No. of atoms with KB's overlaping orbs in proc 0. Max # of overlaps:     263     231
System symmetry is of type slab but no DFTD3.Periodic list was found. Attempting to guess symmetry for D3.
Could not guess the right amount of periodicity directions for D3.
Enabling periodicity on all directions.

siesta: E_KS(eV) =           -83106.7589

siesta: E_KS - E_eggbox =    -83106.7589

siesta: Atomic forces (eV/Ang):
   Tot   -0.000000    0.000000    0.016952
   Max    0.033166
   Res    0.010237    sqrt( Sum f_i^2 / 3N )
   Max    0.033166    constrained

Stress tensor Voigt[x,y,z,yz,xz,xy] (kbar):      -25.84      -25.85       -4.85        0.00       -0.00        0.00
(Free)E + p*V (eV/cell)   -82793.5778
Target enthalpy (eV/cell)   -83106.7589

[...]

outcell: Cell vector modules (Ang)   :   27.722792   27.722792   40.000000
outcell: Cell angles (23,13,12) (deg):     90.0000     90.0000     60.0000
outcell: Cell volume (Ang**3)        :  26623.4638
<dSpData1D:S at geom step 1
  <sparsity:sparsity for geom step 1
    nrows_g=4572 nrows=128 sparsity=.0058 nnzs=122176, refcount: 7>
  <dData1D:(new from dSpData1D) n=122176, refcount: 1>
refcount: 1>
new_DM -- step:     2
Re-using DM from previous geometries...
Number of DMs in history: 1
 DM extrapolation coefficients:
1   1.00000
New DM after history re-use:
<dSpData2D:SpM extrapolated using coords
  <sparsity:sparsity for geom step 1
    nrows_g=4572 nrows=128 sparsity=.0058 nnzs=122176, refcount: 9>
  <dData2D:(temp array for extrapolation) n=122176 m=1, refcount: 1>
refcount: 1>
No. of atoms with KB's overlaping orbs in proc 0. Max # of overlaps:     258     231

[...]

        iscf     Eharris(eV)        E_KS(eV)     FreeEng(eV)     dDmax    Ef(eV) dHmax(eV)
   scf:    1   -83107.145508   -83106.687861   -83106.687861  0.007792 -3.941170  0.131034
   scf:    2   -83105.926430   -83106.451631   -83106.451631  0.004690 -3.933585  0.690433
   scf:    3   -83106.728541   -83106.696550   -83106.696550  0.003966 -3.941926  0.013750
   scf:    4   -83106.697920   -83106.697271   -83106.697271  0.000103 -3.941826  0.010345
   scf:    5   -83106.698484   -83106.697930   -83106.697930  0.000192 -3.941998  0.003211
   scf:    6   -83106.698069   -83106.698009   -83106.698009  0.000083 -3.942443  0.001059
   scf:    7   -83106.698010   -83106.698010   -83106.698010  0.000008 -3.942440  0.000918

[...]

cgvc: Finished line minimization    1.  Mean atomic displacement =    0.0035

[...]

cgvc: Finished line minimization   13.  Mean atomic displacement =    0.0011

[...]

                        Begin CG opt. move =     37

outcell: Unit cell vectors (Ang):
       27.695492   -1.230000    0.000000
       14.912957   23.370000    0.000000
        0.000000    0.000000   40.000000

outcell: Cell vector modules (Ang)   :   27.722792   27.722792   40.000000
outcell: Cell angles (23,13,12) (deg):     90.0000     90.0000     60.0000
outcell: Cell volume (Ang**3)        :  26623.4638
<dSpData1D:S at geom step 37
  <sparsity:sparsity for geom step 37
    nrows_g=4572 nrows=128 sparsity=.0058 nnzs=120993, refcount: 7>
  <dData1D:(new from dSpData1D) n=120993, refcount: 1>
refcount: 1>
new_DM -- step:    38
Re-using DM from previous geometries...
Number of DMs in history: 1
 DM extrapolation coefficients:
1   1.00000
New DM after history re-use:
<dSpData2D:SpM extrapolated using coords
  <sparsity:sparsity for geom step 37
    nrows_g=4572 nrows=128 sparsity=.0058 nnzs=120993, refcount: 9>
  <dData2D:(temp array for extrapolation) n=120993 m=1, refcount: 1>
refcount: 1>
No. of atoms with KB's overlaping orbs in proc 0. Max # of overlaps:     252     229

InitMesh: MESH = 256 x 256 x 432 = 28311552
InitMesh: Mesh cutoff (required, used) =   300.000   314.229 Ry
New grid distribution [1]: sub = 2
New grid distribution [2]: sub = 2
New grid distribution [3]: sub = 2
Setting up quadratic distribution...

        iscf     Eharris(eV)        E_KS(eV)     FreeEng(eV)     dDmax    Ef(eV) dHmax(eV)
   scf:    1   -83106.963879   -83106.966564   -83106.966564  0.000316 -3.943669  0.040916
   scf:    2   -83106.931612   -83106.955689   -83106.955689  0.001250 -3.946202  0.239108
   scf:    3   -83106.968438   -83106.966926   -83106.966926  0.001064 -3.943927  0.002371
   scf:    4   -83106.966945   -83106.966939   -83106.966939  0.000056 -3.943924  0.000568

SCF Convergence by DM+H criterion
max |DM_out - DM_in|         :     0.0000561724
max |H_out - H_in|      (eV) :     0.0005678085
SCF cycle converged after 4 iterations

Using DM_out to compute the final energy and forces
No. of atoms with KB's overlaping orbs in proc 0. Max # of overlaps:     252     229
System symmetry is of type slab but no DFTD3.Periodic list was found. Attempting to guess symmetry for D3.
Could not guess the right amount of periodicity directions for D3.
Enabling periodicity on all directions.

siesta: E_KS(eV) =           -83106.9685

siesta: Atomic forces (eV/Ang):
   Tot    0.000003   -0.000003   -0.013672
   Max    0.009132
   Res    0.002692    sqrt( Sum f_i^2 / 3N )
   Max    0.009132    constrained

Stress tensor Voigt[x,y,z,yz,xz,xy] (kbar):      -25.98      -25.99       -4.09        0.00       -0.00        0.01
(Free)E + p*V (eV/cell)   -82796.4470
Target enthalpy (eV/cell)   -83106.9685

outcoor: Relaxed atomic coordinates (Ang):
    1.42057267    0.00148390   18.15190513   1       1  C
    5.68163200    0.00462572   18.19061351   1       2  C
    9.94206093    0.00385806   18.24084898   1       3  C
   14.20245586   -0.00002449   18.26009914   1       4  C
   18.46283282   -0.00377950   18.23463838   1       5  C
   22.72286292   -0.00395148   18.18387619   1       6  C
   26.98391986   -0.00047562   18.15190494   1       7  C
    3.55003326    1.23356947   18.16899843   1       8  C
    7.81111692    1.23480081   18.21865794   1       9  C
   12.07169890    1.23208527   18.25762199   1      10  C
   16.33208866    1.22781089   18.25487608   1      11  C
   20.59206398    1.22591355   18.21371902   1      12  C
   24.85217286    1.22764766   18.16899777   1      13  C
   29.11357490    1.23180402   18.16064240   1      14  C
    5.67975565    2.46459782   18.19713914   1      15  C
    9.94095440    2.46377881   18.24483091   1      16  C
   14.20174072    2.45992802   18.26460888   1      17  C
   18.46168320    2.45648715   18.24212325   1      18  C
   22.72120709    2.45652961   18.19713800   1      19  C
   26.98178434    2.45980168   18.16879679   1      20  C
    3.54808831    3.69340565   18.18387718   1      21  C
    7.81003403    3.69442431   18.22802165   1      22  C
   12.07128942    3.69193701   18.26309949   1      23  C
   16.33165170    3.68812413   18.26222318   1      24  C
   20.59100714    3.68649035   18.22802220   1      25  C
   24.85066884    3.68814139   18.19061272   1      26  C
   29.11175266    3.69164377   18.18356341   1      27  C
    5.67858204    4.92379694   18.21371963   1      28  C
    9.94063993    4.92328918   18.25378383   1      29  C
   14.20176056    4.92002991   18.27090152   1      30  C
   18.46147494    4.91722013   18.25378502   1      31  C
   22.72056347    4.91724194   18.21865798   1      32  C
   26.98057342    4.91995617   18.19703945   1      33  C
   31.24245187    4.92264184   18.20852715   1      34  C
    7.80948242    6.15347238   18.24212358   1      35  C
   12.07164896    6.15166318   18.26960154   1      36  C
   16.33216683    6.14854112   18.26960092   1      37  C
   20.59131677    6.14724761   18.24483270   1      38  C
   24.85050622    6.14866845   18.21854772   1      39  C
   29.11112340    6.15118795   18.21415709   1      40  C
    5.67825350    7.38261161   18.23463830   1      41  C
    9.94112376    7.38231752   18.26222346   1      42  C
   14.20280954    7.38000781   18.27452313   1      43  C
   18.46253128    7.37809258   18.26310069   1      44  C
   22.72111874    7.37816560   18.24084996   1      45  C
   26.98067534    7.37992899   18.22800381   1      46  C
   31.24251237    7.38153599   18.23462835   1      47  C
    7.81021293    8.61209530   18.25487679   1      48  C
   12.07292954    8.61090462   18.27090227   1      49  C
   16.33373925    8.60908755   18.27090176   1      50  C
   20.59262134    8.60837328   18.25762291   1      51  C
   24.85100427    8.60937664   18.24416982   1      52  C
   29.11172957    8.61070662   18.24251852   1      53  C
   33.37457189    8.61107745   18.25233299   1      54  C
    9.94243122    9.84097338   18.26461034   1      55  C
   14.20461242    9.83981685   18.26960103   1      56  C
   18.46425855    9.83912133   18.26460905   1      57  C
   22.72249560    9.83941184   18.25667498   1      58  C
   26.98177332    9.84011432   18.25321001   1      59  C
   31.24364975    9.84018799   18.25565436   1      60  C
[...]
   34.49858924   19.16124795   21.76055751   1     494  C
   38.74145116   18.78223849   21.80452150   1     495  C
   15.51003707   22.08101207   21.83538622   1     496  C
   19.75436093   21.69994762   21.80452127   1     497  C
   23.99853320   21.32251920   21.75373385   1     498  C
   28.24263275   20.94846236   21.72636119   1     499  C
   32.48648580   20.57480034   21.74411736   1     500  C
   36.72970643   20.19764949   21.79130660   1     501  C
   40.97312586   19.81685793   21.82683956   1     502  C
   17.74251832   23.11532638   21.82683976   1     503  C
   21.98643174   22.73588622   21.77991959   1     504  C
   26.23018988   22.36043069   21.73601708   1     505  C
   30.47424378   21.98710937   21.73150131   1     506  C
   34.71796651   21.61188061   21.76973767   1     507  C
   38.96138128   21.23297744   21.81903467   1     508  C

siesta: Program's energy decomposition (eV):
siesta: Ebs     =    -26960.526950
siesta: Eions   =    143338.147527
siesta: Ena     =     31651.485655
siesta: Ekin    =     57735.371813
siesta: Enl     =     -2929.166804
siesta: Eso     =         0.000000
siesta: Edftu   =         0.000000
siesta: DEna    =      3326.984650
siesta: DUscf   =       169.168888
siesta: DUext   =         0.000000
siesta: Ex      =    -27096.430132
siesta: Ec      =     -2576.619698
siesta: Exc     =    -29673.049829
siesta: EbV     =         0.000000
siesta: eta*DQ  =         0.000000
siesta: Emadel  =         0.000000
siesta: Emeta   =         0.000000
siesta: Emolmec =         0.000000
siesta: Ekinion =         0.000000
siesta: Eharris =    -83106.966945
siesta: Etot    =    -83106.968532
siesta: FreeEng =    -83106.968532

siesta: Final energy (eV):
siesta:  Band Struct. =  -26960.526950
siesta:       Kinetic =   57735.371813
siesta:       Hartree = 1345477.561729
siesta:         Edftu =       0.000000
siesta:       Eso     =       0.000000
siesta:    Ext. field =       0.000000
siesta:         Exch. =  -27096.430132
siesta:         Corr. =   -2576.619698
siesta:     Bulk bias =       0.000000
siesta:   Exch.-corr. =  -29673.049829
siesta:  Ion-electron =-2743209.744688
siesta:       Ion-ion = 1286612.507821
siesta:       Ekinion =       0.000000
siesta: D3 dispersion =     -49.615377
siesta:         Total =  -83106.968532
siesta:         Fermi =      -3.943924

siesta: Stress tensor (static) (eV/Ang**3):
siesta:    -0.016216    0.000005   -0.000000
siesta:     0.000005   -0.016223    0.000000
siesta:    -0.000000    0.000000   -0.002552

siesta: Cell volume =      26623.463814 Ang**3

siesta: Pressure (static):
siesta:                Solid            Molecule  Units
siesta:           0.00012703          0.00012676  Ry/Bohr**3
siesta:           0.01166345          0.01163819  eV/Ang**3
siesta:          18.68691259         18.64644013  kBar
(Free)E+ p_basis*V_orbitals  =      -82800.824379
(Free)Eharris+ p_basis*V_orbitals  =      -82800.822791

siesta: Electric dipole (a.u.)  =   -0.000000    0.000000    0.000103
siesta: Electric dipole (Debye) =   -0.000000    0.000000    0.000262

cite: Please see "Graphene.bib" for an exhaustive BiBTeX file.
cite: Please clearly indicate Siesta version in published work: 5.0.0-alpha-112-g6e4f53aee-dirty
cite: This calculation has made use of the following articles
cite: which are encouraged to be cited in a published work.
        Primary SIESTA paper
          DOI: www.doi.org/10.1088/0953-8984/14/11/302

>> End of run:  30-NOV-2024  21:53:21
Job completed